 start CoCo_3
 title "CoCo_3"
 
 geometry units angstroms noautosym
      Co                            -0.01257747     0.00761452     1.36682241
      Co                             0.01244322    -0.00761337    -1.36684203
      O                               1.40838296    -1.41521989     1.11505247
      O                              -1.43754259     1.42867973     1.13189379
      O                              -1.44372993    -1.40532566     1.11372684
      O                               1.40005096     1.44135814     1.13309416
      C                               1.81345455    -1.80760134    -0.00174424
      C                              -1.80819870    -1.81343276    -0.01047403
      O                              -1.41209321     1.41162905    -1.11520288
      O                               1.44112686    -1.42497422    -1.13197215
      O                               1.43986468     1.40906344    -1.11372780
      O                              -1.39665951    -1.44485559    -1.13281946
      C                              -1.81331612     1.80783205     0.00163171
      C                               1.80784313     1.81365356     0.01060997
      H                              -2.58794916    -2.59426950    -0.01311166
      H                              -2.59435415     2.58691912    -0.01456729
      H                               2.58738516     2.59471081     0.01324352
      H                               2.59482884    -2.58634754     0.01446798
      N                              -0.00793438    -0.00115701    -3.39668769
      H                               0.93743517    -0.00120936    -3.76076435
      H                              -0.48717326    -0.82780659    -3.73481498
      H                              -0.49136826     0.81951027    -3.74268569
      N                               0.00790486     0.00039489     3.39666588
      H                              -0.93738165    -0.01073171     3.76076049
      H                               0.50065490    -0.81507733     3.74185397
      H                               0.47771166     0.83208372     3.73559649
end
 basis
   * library def2-tzvp
 end
scf
thresh 1.0e-5
end
dft
xc pbe0
mulliken
maxiter 500
mult 3
direct
 grid xfine
 tolerances tight
end
driver
  maxiter 500
end
task dft optimize

