# settings

variable	rho equal 0.5
variable        t equal 1
variable	rc equal 2.5

variable    p equal 400     # correlation length
variable    s equal 5       # sample interval
variable    d equal $p*$s   # dump interval 

#setup

units		lj
dimension	3
boundary        f p f
atom_style	molecular
neigh_modify	delay 0 every 1

region          simbox block  0 20 0 20 0 20
create_box      5 simbox bond/types 2 angle/types 2 dihedral/types 1 extra/bond/per/atom 3 extra/angle/per/atom 3 extra/dihedral/per/atom 2


fix wall_x all wall/lj126 xlo EDGE 1.0 1.0 1.22462 xhi EDGE 1.0 1.0 1.22462
fix wall_z all wall/lj126 zlo EDGE 1.0 1.0 1.22462 zhi EDGE 1.0 1.0 1.22462 


create_atoms    1 single 10 10 3 units box
create_atoms    2 single 11 10 3 units box
create_atoms    3 single 11 10 4 units box
create_atoms    3 single 11 10 2 units box
create_atoms    1 single 10 10 1.5 units box
create_atoms    4 single 10 10 4 units box

create_bonds single/bond 1 1 2
create_bonds single/bond 2 2 3
create_bonds single/bond 2 2 4
create_bonds single/angle 1 1 2 3
create_bonds single/angle 1 1 2 4
create_bonds single/angle 2 3 2 4
create_bonds single/dihedral 1 3 2 1 5
create_bonds single/dihedral 1 4 2 1 6

create_atoms    1 single 10 10 17 units box
create_atoms    2 single 11 10 17 units box
create_atoms    3 single 11 10 16 units box
create_atoms    3 single 11 10 18 units box
create_atoms    1 single 10 10 18.5 units box
create_atoms    4 single 10 10 16 units box

create_bonds single/bond 1 7 8
create_bonds single/bond 2 8 9
create_bonds single/bond 2 8 10
create_bonds single/angle 1 7 8 9
create_bonds single/angle 1 7 8 10
create_bonds single/angle 2 9 8 10
create_bonds single/dihedral 1 9 8 7 11
create_bonds single/dihedral 1 10 8 7 12


lattice sc ${rho}
region          atombox block  4 16 4 16 5 16 units box
create_atoms 5 region atombox

group indenter type 1 2 4
group ljs type 5

pair_style      lj/cut ${rc}
pair_coeff      * * 0 0
pair_coeff      1 5 1 1
pair_coeff      2 5 1 1
pair_coeff      3 5 1 1
pair_coeff      5 5 1 1

bond_style      harmonic
bond_coeff      1 500 1
#rotor length
bond_coeff      2 500 1.5

angle_style      harmonic
angle_coeff      1 300 90
angle_coeff      2 300 180


dihedral_style      harmonic
dihedral_coeff      1 100 -1 1

mass            * 1.0


group rotor1 id 3 4
group rotor2 id 9 10

minimize 1.0e-4 1.0e-6 10 10

fix          1 all nve
fix	        2 all langevin $t $t 1 1
velocity indenter set 0.0 0.0 0.0
fix freeze indenter setforce 0.0 0.0 0.0

velocity        ljs create $t 97287

fix 31 rotor1 addtorque 30.0 0.0 0.0
fix 32 rotor2 addtorque 30.0 0.0 0.0


# equilibration run


thermo_style custom step temp pe etotal press
thermo          1000
run	        20000


compute layers ljs chunk/atom bin/1d y lower 0.005 units reduced
fix velProf ljs ave/chunk 1 1 1000 layers density/number vx vy vz temp ave running file denVel.profile


compute   msd ljs msd com yes
fix      12 ljs ave/time $s $p $d c_msd[1] c_msd[2] c_msd[3] c_msd[4] file msddumpfile.txt

#loop

label       loopa

variable i loop 200
dihedral_coeff      1 100 -1 1
run	        10000
dihedral_coeff      1 100 +1 1
run	        10000
next i
jump        in.lammps loopa

