 start NiNi_scan
 title "NiNi_scan"

  geometry units angstroms noautosym
Ni       0.0894534900     -0.2057682400      1.4099359700                 
Ni      -0.1764568300     -0.1522729500     -1.4347455000                 
O        1.4452815200     -1.5677048800      0.8369102500                 
O       -1.3359205900      1.2896410400      1.0607908900                 
O       -1.3330929200     -1.5799766200      1.3087573600                 
O        1.4906862000      1.2504563900      1.2644437400                 
C        1.7401559400     -1.9441320600     -0.3200761500                 
C       -1.8193248800     -1.9519054600      0.2193065000                 
O       -1.5590683700      1.2780793000     -1.1811619300                 
O        1.2612983500     -1.5618689900     -1.4098817700                 
O        1.2800935200      1.2435580000     -0.9556857400                 
O       -1.5200446300     -1.5358258400     -0.9168602300                 
C       -1.8246548300      1.6743708300     -0.0224171700                 
C        1.7806260500      1.6411970700      0.1150585000                 
H       -2.5983424600     -2.7292406200      0.2693617900                 
H       -2.5894396900      2.4682049200      0.0441178100                 
H        2.5585667800      2.4196995900      0.0401001400                 
H        2.5273344300     -2.7145227200     -0.3825231300                 
N        0.0737837400      0.2313319700     -3.5680821300                 
H        0.8131280500      0.9259086100     -3.5722026100                 
H        0.3914620800     -0.5682117100     -4.1017167800                 
H       -0.7364734000      0.6321326000     -4.0239055400                 
N        0.0276350400      0.2654899700      3.5822506100                 
H       -0.6803656100      0.9887730400      3.6416864300                 
H       -0.2191826400     -0.4755815500      4.2258429400                 
H        0.9113537000      0.6674206800      3.8701018100                 
end

geometry adjust
zcoord
    angle 1 2 19 150 mmn1 constant
    angle 2 1 23 150 mmn2 constant
end
end

 basis
   * library def2-tzvp
 end
dft
mulliken
maxiter 500
xc pbe0
odft
mult 1
direct
vectors input big.mos
end
driver
maxiter 500
end

task dft optimize

geometry adjust
zcoord
    angle 1 2 19 155 mmn1 constant
    angle 2 1 23 155 mmn2 constant
end
end

 basis
   * library def2-tzvp
 end
dft
mulliken
maxiter 500
xc pbe0
odft
mult 1
direct
vectors input big.mos
end
driver
maxiter 500
end

task dft optimize

geometry adjust
zcoord
    angle 1 2 19 160 mmn1 constant
    angle 2 1 23 160 mmn2 constant
end
end

 basis
   * library def2-tzvp
 end
dft
mulliken
maxiter 500
xc pbe0
odft
mult 1
direct
vectors input big.mos
end
driver
maxiter 500
end

task dft optimize

geometry adjust
zcoord
    angle 1 2 19 165 mmn1 constant
    angle 2 1 23 165 mmn2 constant
end
end
task dft optimize

geometry adjust
zcoord
    angle 1 2 19 170 mmn1 constant
    angle 2 1 23 170 mmn2 constant
end
end
task dft optimize

geometry adjust
zcoord
    angle 1 2 19 175 mmn1 constant
    angle 2 1 23 175 mmn2 constant
end
end
task dft optimize

geometry adjust
zcoord
    angle 1 2 19 180 mmn1 constant
    angle 2 1 23 180 mmn2 constant
end
end
task dft optimize
