SimulationType                MonteCarlo
NumberOfCycles                1000
NumberOfInitializationCycles  1000
PrintEvery                    5000
RestartFile                   yes
Movies yes
WriteMoviesEvery 10
WriteBinaryRestartFileEvery 5000

Forcefield                    DUT
CutOffVDW                     12.0
RemoveAtomNumberCodeFromLabel no

Framework             0
FrameworkName         DUT-49op_opt
UseChargesFromCIFFile no
UnitCells             1 1 1
HeliumVoidFraction    0.68502
ExternalTemperature   111
ExternalPressure    55736.5


Component 0 MoleculeName              methane
            StartingBead              0
            MoleculeDefinition        TraPPE
            IdealGasRosenbluthWeight  1
            FugacityCoefficient       1.0
            TranslationProbability    0.5
            ReinsertionProbability    0.5
            SwapProbability           1.0
            CreateNumberOfMolecules   0
