# Optimized geometry from test.out
! B3LYP RIJCOSX cc-pVDZ def2/J D3BJ TIGHTSCF Opt Freq Grid5
%scf
        MaxIter 125
end
%pal nprocs 24 end
%maxcore 2000
*xyz 0 1
C         3.51899600000000    0.06588900000000   -0.00901100000000
C         2.81295300000000    0.81203700000000   -0.94497100000000
C         2.83172100000000   -0.69713900000000    0.92785400000000
C         1.43178100000000    0.78933000000000   -0.92825800000000
C         1.44629100000000   -0.73304000000000    0.94104100000000
C         0.74061500000000    0.02402500000000    0.00202800000000
C        -0.74038100000000    0.02430000000000   -0.00581400000000
C        -1.43110000000000    0.78863400000000    0.92562600000000
C        -1.44649600000000   -0.73130100000000   -0.94565300000000
C        -2.81225400000000    0.81160600000000    0.94281900000000
C        -2.83193300000000   -0.69536900000000   -0.93177800000000
C        -3.51873700000000    0.06650700000000    0.00635600000000
C         8.78460200000000   -3.97058600000000   -0.05835000000000
C         8.72287800000000    4.18291100000000    0.03620800000000
C        -8.78363100000000   -3.97097300000000    0.06180500000000
C        -8.72435600000000    4.18180700000000   -0.03339600000000
C        -6.41100200000000   -3.30495000000000    0.06978800000000
C        -5.39040200000000   -2.38126200000000    0.05468200000000
C        -7.75799300000000   -2.91241900000000    0.04858300000000
C         6.41204100000000   -3.30492300000000   -0.07027600000000
C        -5.73527100000000   -1.03484800000000    0.00916100000000
C         7.75894500000000   -2.91210900000000   -0.04692900000000
C         5.39128100000000   -2.38143800000000   -0.05653000000000
C        -8.10631700000000   -1.56659400000000    0.02797200000000
C        -7.09166100000000   -0.62565700000000    0.01236800000000
C        -5.71898200000000    1.20185100000000    0.00828500000000
C        -7.08113400000000    0.81236800000000    0.00876600000000
C         8.10696400000000   -1.56620400000000   -0.02585400000000
C        -5.35431100000000    2.54298500000000   -0.03675000000000
C         5.73582400000000   -1.03496400000000   -0.01022000000000
C        -8.08201700000000    1.76799800000000   -0.00327500000000
C         7.09213100000000   -0.62541300000000   -0.01167900000000
C        -6.36145800000000    3.48141100000000   -0.04836900000000
C        -7.71405300000000    3.10854500000000   -0.02399800000000
C         7.08117700000000    0.81263800000000   -0.00796200000000
C         5.71890700000000    1.20170500000000   -0.00877900000000
C         8.08167500000000    1.76870600000000    0.00514600000000
C         5.35365100000000    2.54266000000000    0.03645400000000
C         7.71314200000000    3.10909100000000    0.02580500000000
C         6.36040400000000    3.48147100000000    0.04925700000000
H         3.34410300000000    1.39105300000000   -1.68467900000000
H         3.38974100000000   -1.25944800000000    1.66225000000000
H         0.87629200000000    1.37276600000000   -1.64787200000000
C         0.71634000000000   -1.56627700000000    1.94961000000000
H        -0.87523700000000    1.37107200000000    1.64576500000000
C        -0.71703700000000   -1.56286300000000   -1.95596300000000
H        -3.34306900000000    1.38995700000000    1.68329300000000
H        -3.39033800000000   -1.25679400000000   -1.66656300000000
H        -6.19595900000000   -4.36195800000000    0.10189300000000
H        -4.35804400000000   -2.69328600000000    0.08890100000000
H         6.19730400000000   -4.36197700000000   -0.10287500000000
H         4.35902200000000   -2.69363100000000   -0.09231000000000
H        -9.14252100000000   -1.26992400000000    0.02784400000000
H        -4.31750100000000    2.83967100000000   -0.07234500000000
H         9.14314700000000   -1.26942300000000   -0.02432200000000
H        -9.12246600000000    1.48651300000000   -0.00024900000000
H        -6.13105800000000    4.53517500000000   -0.07990200000000
H         9.12225300000000    1.48770500000000    0.00305300000000
H         4.31669500000000    2.83890600000000    0.07131400000000
H         6.12958800000000    4.53514100000000    0.08099000000000
N        -4.92468300000000    0.07760900000000    0.00697700000000
N         4.92491400000000    0.07722800000000   -0.00873600000000
O        10.04423000000000   -3.49839500000000   -0.04411200000000
O         9.98947500000000    3.72948200000000    0.01850600000000
O         8.55341900000000   -5.15564300000000   -0.07790500000000
O         8.47428800000000    5.36430100000000    0.05775500000000
O        -8.55238700000000   -5.15605900000000    0.07889400000000
O        -9.99069800000000    3.72757900000000   -0.01755300000000
O       -10.04321700000000   -3.49863100000000    0.05244300000000
O        -8.47646400000000    5.36339100000000   -0.05284600000000
H        10.66639500000000   -4.24187800000000   -0.05287300000000
H        10.60032800000000    4.48229400000000    0.02657300000000
H       -10.60206000000000    4.47998100000000   -0.02489200000000
H       -10.66557400000000   -4.24192800000000    0.06221900000000
H         1.39769100000000   -2.24402400000000    2.45724800000000
H        -0.07140200000000   -2.14611300000000    1.47166200000000
H         0.24497700000000   -0.92913700000000    2.69713600000000
H        -1.39828900000000   -2.24111300000000   -2.46306000000000
H         0.07230600000000   -2.14196100000000   -1.47978200000000
H        -0.24782000000000   -0.92445300000000   -2.70377300000000
*
