 # Version information for this restart file
 # current date 2018-01-17 17:26:33.085
 # current working dir /lustre/scratch2/jevans/DUTsimulations/dft_simulations/dut60
 # Program compiled at                              Mi 9. Mär 09:51:09 CET 2016
 # Program compiled on                                              tauruslogin4
 # Program compiled for                                                   Global
 # Source code revision number                                         svn:16458
 &GLOBAL
   PRINT_LEVEL  LOW
   PROJECT_NAME dut6
   RUN_TYPE GEO_OPT
 &END GLOBAL
 &FORCE_EVAL
   STRESS_TENSOR  ANALYTICAL
   &DFT
   BASIS_SET_FILE_NAME BASIS_MOLOPT
   POTENTIAL_FILE_NAME GTH_POTENTIALS
     &SCF
       MAX_SCF  50
       EPS_SCF     1.0000000000000001E-05
       SCF_GUESS ATOMIC
       &OT  T
         MINIMIZER  CG
         PRECONDITIONER  FULL_KINETIC
       &END OT
       &OUTER_SCF  T
         EPS_SCF     1.0000000000000001E-05
         MAX_SCF  10
       &END OUTER_SCF
     &END SCF
     &QS
       EPS_DEFAULT     9.9999999999999995E-08
       EPS_PGF_ORB     9.9999999999999995E-08
       METHOD  GPW
     &END QS
     &MGRID
       NGRIDS  5
       CUTOFF     8.0000000000000000E+02
       REL_CUTOFF     7.0000000000000000E+01
     &END MGRID
     &XC
       DENSITY_CUTOFF     1.0000000000000000E-10
       GRADIENT_CUTOFF     1.0000000000000000E-10
       TAU_CUTOFF     1.0000000000000000E-10
       &XC_FUNCTIONAL  NO_SHORTCUT
         &PBE  T
         &END PBE
       &END XC_FUNCTIONAL
     &END XC
   &END DFT
  &SUBSYS
    &CELL
      ABC [angstrom] 30.2771 30.5845 30.5845
      ALPHA_BETA_GAMMA [deg] 90.00 90.00 90.00
      MULTIPLE_UNIT_CELL  1 1 1
    &END CELL
    &COORD
      SCALED T
C     0.417673     0.509941     0.005906
C     0.509949     0.005901     0.417698
C     0.005895     0.417676     0.509947
C     0.582307     0.490054     0.994116
C     0.490057     0.994116     0.582333
C     0.994087     0.582307     0.490055
C     0.082303     0.494102     0.990052
C     0.990058     0.082307     0.494082
C     0.494113     0.990058     0.082333
C     0.917670     0.505906     0.009939
C     0.009940     0.917675     0.505910
C     0.505902     0.009943     0.917699
C     0.505969     0.005421     0.868890
C     0.005420     0.868863     0.505986
C     0.868858     0.505975     0.005420
C     0.494041     0.994578     0.131146
C     0.994578     0.131117     0.494024
C     0.131113     0.494035     0.994576
C     0.994023     0.631117     0.494576
C     0.494576     0.994048     0.631145
C     0.631117     0.494574     0.994064
C     0.005971     0.368865     0.505425
C     0.505426     0.005962     0.368888
C     0.368860     0.505423     0.005970
C     0.766951     0.640904     0.808775
C     0.640902     0.808764     0.766958
C     0.808769     0.766952     0.640908
C     0.733050     0.691238     0.859103
C     0.859100     0.733051     0.691241
C     0.691231     0.859100     0.733059
C     0.233045     0.359092     0.191231
C     0.359093     0.191224     0.233049
C     0.191230     0.233045     0.359095
C     0.266944     0.308762     0.140899
C     0.140898     0.266944     0.308763
C     0.308761     0.140896     0.266952
C     0.767572     0.608892     0.841102
C     0.608887     0.841090     0.767581
C     0.841095     0.767564     0.608892
C     0.732426     0.658910     0.891118
C     0.891111     0.732420     0.658911
C     0.658901     0.891111     0.732438
C     0.232415     0.391105     0.158903
C     0.391105     0.158895     0.232426
C     0.158900     0.232413     0.391106
C     0.267558     0.341088     0.108883
C     0.108882     0.267555     0.341090
C     0.341086     0.108881     0.267573
C     0.079389     0.242529     0.586896
C     0.586895     0.079388     0.242537
C     0.242535     0.586886     0.079392
C     0.920612     0.757463     0.413110
C     0.413104     0.920610     0.757471
C     0.757472     0.413098     0.920620
C     0.420618     0.913101     0.257477
C     0.913110     0.257465     0.420610
C     0.257461     0.420613     0.913110
C     0.579390     0.086887     0.742541
C     0.086890     0.742530     0.579387
C     0.742529     0.579386     0.086899
C     0.243084     0.621453     0.113874
C     0.113866     0.243077     0.621468
C     0.621468     0.113864     0.243084
C     0.756917     0.378528     0.886139
C     0.886135     0.756923     0.378538
C     0.378535     0.886129     0.756918
C     0.256925     0.386138     0.878535
C     0.386140     0.878528     0.256927
C     0.878538     0.256921     0.386133
C     0.743084     0.613866     0.121469
C     0.613871     0.121455     0.743091
C     0.121465     0.743070     0.613861
C     0.261261     0.662697     0.105213
C     0.105203     0.261248     0.662714
C     0.662715     0.105202     0.261253
C     0.738758     0.337278     0.894804
C     0.894800     0.738762     0.337289
C     0.337290     0.894788     0.738742
C     0.238751     0.394799     0.837290
C     0.394804     0.837280     0.238763
C     0.837291     0.238753     0.394797
C     0.761256     0.605205     0.162714
C     0.605208     0.162703     0.761255
C     0.162708     0.761245     0.605199
C     0.273514     0.344292     0.887222
C     0.887224     0.273513     0.344288
C     0.344295     0.887217     0.273518
C     0.726499     0.655714     0.112780
C     0.112778     0.726484     0.655708
C     0.655715     0.112769     0.726497
C     0.226503     0.612765     0.155723
C     0.612780     0.155707     0.226489
C     0.155712     0.226490     0.612777
C     0.773514     0.387217     0.844296
C     0.387229     0.844282     0.773501
C     0.844293     0.773522     0.387225
C     0.711495     0.358929     0.128080
C     0.128089     0.711493     0.358941
C     0.358954     0.128082     0.711534
C     0.288468     0.641054     0.871925
C     0.871921     0.288486     0.641061
C     0.641061     0.871920     0.288494
C     0.788481     0.371912     0.141050
C     0.371915     0.141071     0.788522
C     0.141057     0.788481     0.371919
C     0.211482     0.628091     0.858935
C     0.628090     0.858945     0.211507
C     0.858944     0.211498     0.628090
C     0.262590     0.694597     0.137620
C     0.137612     0.262567     0.694613
C     0.694611     0.137612     0.262581
C     0.737430     0.305382     0.862391
C     0.862387     0.737421     0.305396
C     0.305394     0.862376     0.737416
C     0.237416     0.362389     0.805393
C     0.362393     0.805383     0.237435
C     0.805393     0.237425     0.362388
C     0.762575     0.637612     0.194616
C     0.637618     0.194600     0.762588
C     0.194609     0.762571     0.637605
C     0.271332     0.311759     0.855558
C     0.855559     0.271337     0.311756
C     0.311764     0.855551     0.271342
C     0.728666     0.688243     0.144450
C     0.144446     0.728659     0.688239
C     0.688249     0.144434     0.728676
C     0.228680     0.644432     0.188254
C     0.644446     0.188239     0.228665
C     0.188242     0.228658     0.644446
C     0.771337     0.355552     0.811764
C     0.355563     0.811751     0.771327
C     0.811758     0.771334     0.355563
C     0.711434     0.327298     0.160700
C     0.160706     0.711434     0.327307
C     0.327313     0.160689     0.711462
C     0.288546     0.672684     0.839305
C     0.839304     0.288552     0.672695
C     0.672687     0.839295     0.288564
C     0.788549     0.339298     0.172686
C     0.339287     0.172696     0.788578
C     0.172688     0.788550     0.339300
C     0.211431     0.660705     0.827299
C     0.660701     0.827305     0.211447
C     0.827311     0.211437     0.660709
C     0.246587     0.686062     0.179927
C     0.179926     0.246588     0.686067
C     0.686072     0.179922     0.246586
C     0.753415     0.313927     0.820080
C     0.820081     0.753428     0.313932
C     0.313939     0.820064     0.753400
C     0.253428     0.320084     0.813926
C     0.320082     0.813924     0.253423
C     0.813930     0.253428     0.320081
C     0.746585     0.679922     0.186076
C     0.679922     0.186068     0.746574
C     0.186076     0.746563     0.679911
C     0.248597     0.719234     0.215174
C     0.215171     0.248595     0.719242
C     0.719244     0.215169     0.248592
C     0.751411     0.280753     0.784834
C     0.784831     0.751412     0.280764
C     0.280765     0.784819     0.751400
C     0.251418     0.284836     0.780756
C     0.284833     0.780754     0.251414
C     0.780755     0.251416     0.284836
C     0.748590     0.715168     0.219250
C     0.715171     0.219238     0.748592
C     0.219249     0.748579     0.715157
C     0.215991     0.720304     0.247443
C     0.247440     0.215988     0.720311
C     0.720310     0.247439     0.215989
C     0.784013     0.279689     0.752562
C     0.752557     0.784012     0.279697
C     0.279694     0.752549     0.784006
C     0.284016     0.252559     0.779689
C     0.252562     0.779684     0.284018
C     0.779689     0.284016     0.252561
C     0.715986     0.747438     0.220317
C     0.747440     0.220309     0.715987
C     0.220316     0.715976     0.747429
C     0.497551     0.974279     0.944387
C     0.974274     0.944361     0.497554
C     0.944357     0.497559     0.974272
C     0.002422     0.555620     0.525725
C     0.525728     0.002443     0.555644
C     0.555619     0.525723     0.002452
C     0.502449     0.025725     0.055643
C     0.025724     0.055620     0.502433
C     0.055615     0.502437     0.025722
C     0.997555     0.444362     0.474278
C     0.474279     0.997565     0.444386
C     0.444360     0.474276     0.997550
C     0.496186     0.978856     0.990478
C     0.978857     0.990452     0.496162
C     0.990448     0.496174     0.978854
C     0.003814     0.509531     0.521144
C     0.521147     0.003828     0.509553
C     0.509529     0.521141     0.003830
C     0.503818     0.021146     0.009553
C     0.021140     0.009530     0.503825
C     0.009526     0.503824     0.021139
C     0.996165     0.490453     0.478859
C     0.478860     0.996182     0.490476
C     0.490452     0.478856     0.996175
C     0.512614     0.057062     0.981361
C     0.057058     0.981339     0.512611
C     0.981335     0.512610     0.057057
C     0.487388     0.942942     0.018668
C     0.942941     0.018643     0.487372
C     0.018639     0.487384     0.942937
C     0.987379     0.518642     0.442940
C     0.442942     0.987398     0.518667
C     0.518643     0.442940     0.987386
C     0.012598     0.481341     0.557063
C     0.557066     0.012610     0.481362
C     0.481337     0.557059     0.012612
C     0.513518     0.051735     0.936701
C     0.051729     0.936679     0.513532
C     0.936674     0.513524     0.051729
C     0.486480     0.948271     0.063329
C     0.948269     0.063304     0.486456
C     0.063300     0.486472     0.948265
C     0.986460     0.563302     0.448267
C     0.448271     0.986483     0.563327
C     0.563304     0.448267     0.986479
C     0.013522     0.436681     0.551735
C     0.551738     0.013523     0.436701
C     0.436677     0.551732     0.013521
C     0.717809     0.750006     0.782198
C     0.750004     0.782194     0.717814
C     0.782194     0.717811     0.750010
C     0.282186     0.249993     0.217803
C     0.249995     0.217800     0.282188
C     0.217801     0.282184     0.249996
C     0.749998     0.717256     0.782751
C     0.717254     0.782747     0.750001
C     0.782745     0.749996     0.717257
C     0.249994     0.282739     0.217250
C     0.282742     0.217249     0.249997
C     0.217249     0.249992     0.282741
C     0.750003     0.682935     0.817077
C     0.682930     0.817071     0.750007
C     0.817068     0.749993     0.682933
C     0.249986     0.317061     0.182925
C     0.317062     0.182922     0.249993
C     0.182922     0.249982     0.317062
C     0.749991     0.617399     0.882609
C     0.617393     0.882601     0.750013
C     0.882606     0.749995     0.617402
C     0.249985     0.382597     0.117392
C     0.382596     0.117386     0.249998
C     0.117392     0.249993     0.382602
C     0.582792     0.917198     0.750008
C     0.917203     0.749992     0.582802
C     0.749994     0.582802     0.917208
C     0.417199     0.082792     0.250010
C     0.082792     0.249989     0.417199
C     0.249992     0.417200     0.082797
C     0.083773     0.749978     0.416225
C     0.416224     0.083772     0.750059
C     0.749969     0.416225     0.083773
C     0.916227     0.249987     0.583775
C     0.583777     0.916230     0.250001
C     0.249957     0.583771     0.916225
C     0.749982     0.381801     0.118201
C     0.118197     0.749986     0.381797
C     0.381793     0.118193     0.750040
C     0.249970     0.618195     0.881797
C     0.881801     0.249991     0.618202
C     0.618198     0.881798     0.250001
C     0.749992     0.316545     0.183457
C     0.183455     0.749994     0.316543
C     0.316545     0.183456     0.750014
C     0.249996     0.683447     0.816536
C     0.816541     0.249998     0.683454
C     0.683459     0.816548     0.250004
C     0.750000     0.282342     0.217658
C     0.217658     0.749996     0.282343
C     0.282343     0.217657     0.750000
C     0.250000     0.717651     0.782337
C     0.782346     0.249995     0.717662
C     0.717657     0.782343     0.250005
C     0.217357     0.282639     0.750009
C     0.750000     0.217361     0.282646
C     0.282649     0.749992     0.217365
C     0.782641     0.717357     0.250010
C     0.250010     0.782627     0.717344
C     0.717359     0.249995     0.782644
H     0.779212     0.632905     0.776272
H     0.632903     0.776260     0.779214
H     0.776264     0.779205     0.632905
H     0.720796     0.723742     0.867106
H     0.867099     0.720789     0.723743
H     0.723735     0.867103     0.720801
H     0.220784     0.367092     0.223734
H     0.367095     0.223726     0.220787
H     0.223732     0.220780     0.367093
H     0.279197     0.276257     0.132896
H     0.132894     0.279193     0.276257
H     0.276255     0.132896     0.279207
H     0.781086     0.576640     0.834339
H     0.576637     0.834327     0.781099
H     0.834335     0.781082     0.576642
H     0.718907     0.665671     0.923368
H     0.923362     0.718905     0.665674
H     0.665661     0.923363     0.718923
H     0.218902     0.423356     0.165665
H     0.423356     0.165654     0.218911
H     0.165665     0.218904     0.423359
H     0.281078     0.334327     0.076633
H     0.076633     0.281079     0.334330
H     0.334323     0.076632     0.281093
H     0.273999     0.669427     0.072647
H     0.072637     0.273985     0.669443
H     0.669440     0.072637     0.273996
H     0.726016     0.330551     0.927369
H     0.927364     0.726018     0.330559
H     0.330561     0.927354     0.726003
H     0.226008     0.427363     0.830562
H     0.427370     0.830551     0.226025
H     0.830564     0.226010     0.427361
H     0.773993     0.572638     0.169441
H     0.572644     0.169429     0.773999
H     0.169433     0.773988     0.572634
H     0.287342     0.337515     0.919334
H     0.919337     0.287338     0.337509
H     0.337516     0.919329     0.287344
H     0.712669     0.662495     0.080670
H     0.080666     0.712660     0.662489
H     0.662495     0.080657     0.712671
H     0.212675     0.580653     0.162499
H     0.580670     0.162486     0.212659
H     0.162489     0.212661     0.580666
H     0.787338     0.419330     0.837517
H     0.419339     0.837505     0.787331
H     0.837518     0.787346     0.419338
H     0.681639     0.366849     0.110356
H     0.110363     0.681638     0.366861
H     0.366878     0.110346     0.681686
H     0.318319     0.633124     0.889654
H     0.889648     0.318338     0.633136
H     0.633134     0.889644     0.318349
H     0.818331     0.389646     0.133126
H     0.389634     0.133148     0.818380
H     0.133129     0.818334     0.389646
H     0.181627     0.610363     0.866850
H     0.610362     0.866867     0.181654
H     0.866865     0.181644     0.610363
H     0.275668     0.726846     0.129857
H     0.129851     0.275656     0.726859
H     0.726859     0.129848     0.275662
H     0.724351     0.273133     0.870157
H     0.870150     0.724349     0.273144
H     0.273146     0.870139     0.724333
H     0.224343     0.370153     0.773142
H     0.370159     0.773133     0.224357
H     0.773144     0.224346     0.370152
H     0.775658     0.629847     0.226863
H     0.629852     0.226851     0.775661
H     0.226857     0.775650     0.629839
H     0.282849     0.278979     0.863503
H     0.863505     0.282844     0.278973
H     0.278980     0.863499     0.282846
H     0.717163     0.721027     0.136503
H     0.136500     0.717151     0.721022
H     0.721030     0.136490     0.717161
H     0.217172     0.636484     0.221036
H     0.636501     0.221021     0.217155
H     0.221028     0.217162     0.636494
H     0.782843     0.363500     0.778981
H     0.363512     0.778967     0.782830
H     0.778978     0.782848     0.363512
H     0.680831     0.311120     0.169172
H     0.169177     0.680830     0.311131
H     0.311141     0.169151     0.680852
H     0.319156     0.688853     0.830839
H     0.830836     0.319159     0.688867
H     0.688863     0.830829     0.319169
H     0.819157     0.330836     0.188861
H     0.330813     0.188875     0.819180
H     0.188861     0.819157     0.330833
H     0.180830     0.669175     0.811116
H     0.669172     0.811133     0.180840
H     0.811133     0.180832     0.669177
H     0.188026     0.698448     0.244483
H     0.244485     0.188021     0.698457
H     0.698456     0.244478     0.188023
H     0.811978     0.301545     0.755519
H     0.755516     0.811978     0.301551
H     0.301550     0.755509     0.811970
H     0.311981     0.255523     0.801545
H     0.255517     0.801543     0.311980
H     0.801541     0.311983     0.255519
H     0.688022     0.744479     0.198461
H     0.744484     0.198450     0.688024
H     0.198460     0.688012     0.744473
H     0.491760     0.942362     0.929592
H     0.942359     0.929567     0.491750
H     0.929563     0.491758     0.942357
H     0.008223     0.570418     0.557639
H     0.557643     0.008247     0.570440
H     0.570415     0.557636     0.008261
H     0.508247     0.057641     0.070438
H     0.057638     0.070416     0.508239
H     0.070411     0.508245     0.057635
H     0.991756     0.429566     0.442363
H     0.442364     0.991765     0.429590
H     0.429566     0.442360     0.991752
H     0.518580     0.089161     0.995768
H     0.089155     0.995747     0.518587
H     0.995742     0.518579     0.089155
H     0.481425     0.910842     0.004261
H     0.910844     0.004236     0.481394
H     0.004232     0.481414     0.910839
H     0.981408     0.504233     0.410842
H     0.410843     0.981431     0.504259
H     0.504236     0.410842     0.981411
H     0.018567     0.495750     0.589161
H     0.589164     0.018578     0.495769
H     0.495745     0.589157     0.018585
H     0.520015     0.079256     0.915097
H     0.079250     0.915076     0.520033
H     0.915071     0.520021     0.079252
H     0.479985     0.920748     0.084932
H     0.920747     0.084908     0.479957
H     0.084904     0.479977     0.920743
H     0.979968     0.584905     0.420743
H     0.420746     0.979991     0.584930
H     0.584909     0.420745     0.979985
H     0.020017     0.415078     0.579258
H     0.579261     0.020014     0.415097
H     0.415073     0.579255     0.020018
H     0.692626     0.750001     0.807380
H     0.750001     0.807377     0.692631
H     0.807375     0.692627     0.750005
H     0.307368     0.249993     0.192620
H     0.249996     0.192618     0.307371
H     0.192618     0.307367     0.249997
H     0.192159     0.307844     0.749998
H     0.750003     0.192160     0.307847
H     0.307851     0.749991     0.192165
H     0.807844     0.692158     0.250008
H     0.250008     0.807829     0.692144
H     0.692157     0.249995     0.807845
O     0.550361     0.911363     0.775758
O     0.911361     0.775739     0.550368
O     0.775737     0.550366     0.911364
O     0.949636     0.724245     0.588638
O     0.588633     0.949631     0.724261
O     0.724242     0.588633     0.949638
O     0.449629     0.088631     0.224258
O     0.088638     0.224250     0.449637
O     0.224243     0.449632     0.088632
O     0.050366     0.275746     0.411362
O     0.411360     0.050358     0.275755
O     0.275740     0.411361     0.050365
O     0.501029     0.967172     0.852661
O     0.967175     0.852620     0.501068
O     0.852616     0.501059     0.967175
O     0.998933     0.647350     0.532826
O     0.532817     0.998986     0.647389
O     0.647350     0.532816     0.999043
O     0.498992     0.032819     0.147386
O     0.032826     0.147352     0.498940
O     0.147343     0.498979     0.032824
O     0.001045     0.352625     0.467181
O     0.467176     0.001039     0.352658
O     0.352619     0.467178     0.001049
O     0.510831     0.040823     0.847271
O     0.040832     0.847252     0.510817
O     0.847248     0.510818     0.040831
O     0.989168     0.652734     0.459171
O     0.459167     0.989178     0.652754
O     0.652736     0.459177     0.989164
O     0.489168     0.959170     0.152754
O     0.959172     0.152735     0.489174
O     0.152731     0.489167     0.959174
O     0.010825     0.347253     0.540834
O     0.540828     0.010825     0.347268
O     0.347250     0.540834     0.010814
O     0.057544     0.717406     0.416865
O     0.416873     0.057537     0.717495
O     0.717399     0.416860     0.057542
O     0.942461     0.282553     0.583135
O     0.583135     0.942459     0.282572
O     0.282518     0.583132     0.942464
O     0.442458     0.083141     0.782628
O     0.083133     0.782543     0.442462
O     0.782535     0.442459     0.083130
O     0.557542     0.916868     0.217435
O     0.916865     0.217417     0.557543
O     0.217382     0.557544     0.916862
O     0.044822     0.264760     0.594705
O     0.594706     0.044819     0.264766
O     0.264762     0.594703     0.044824
O     0.955185     0.735242     0.405294
O     0.405294     0.955174     0.735236
O     0.735235     0.405294     0.955183
O     0.455182     0.905292     0.235242
O     0.905297     0.235236     0.455178
O     0.235237     0.455183     0.905294
O     0.544821     0.094703     0.764765
O     0.094703     0.764762     0.544821
O     0.764766     0.544824     0.094707
O     0.947650     0.279655     0.412841
O     0.412845     0.947641     0.279666
O     0.279657     0.412842     0.947646
O     0.052349     0.720341     0.587161
O     0.587163     0.052347     0.720350
O     0.720347     0.587164     0.052355
O     0.552354     0.087160     0.220349
O     0.087158     0.220341     0.552354
O     0.220343     0.552347     0.087162
O     0.447644     0.912841     0.779660
O     0.912846     0.779660     0.447646
O     0.779653     0.447642     0.912843
O     0.500019    -0.000026     0.750018
O    -0.000021     0.749989     0.500024
O     0.749989     0.500024    -0.000020
O     0.499974     1.000018     0.250014
O     1.000024     0.249992     0.499979
O     0.249986     0.499979     1.000025
Zn     0.500096     0.949628     0.790158
Zn     0.949627     0.790107     0.500103
Zn     0.790103     0.500100     0.949627
Zn    -0.000099     0.709854     0.550373
Zn     0.550371    -0.000099     0.709903
Zn     0.709854     0.550372    -0.000092
Zn     0.499901     0.050372     0.209900
Zn     0.050372     0.209858     0.499902
Zn     0.209847     0.499902     0.050371
Zn     1.000101     0.290115     0.449628
Zn     0.449628     1.000096     0.290155
Zn     0.290106     0.449628     1.000100
Zn     0.000128     0.714857     0.446256
Zn     0.446257     0.000123     0.714872
Zn     0.714857     0.446255     0.000128
Zn     0.999875     0.285134     0.553743
Zn     0.553744     0.999874     0.285143
Zn     0.285130     0.553742     0.999876
Zn     0.499873     0.053745     0.785147
Zn     0.053742     0.785133     0.499875
Zn     0.785131     0.499875     0.053744
Zn     0.500125     0.946256     0.214868
Zn     0.946256     0.214859     0.500127
Zn     0.214855     0.500128     0.946255
    &END COORD
     &KIND H
       BASIS_SET TZVP-MOLOPT-GTH-q1
       POTENTIAL GTH-PBE-q1
     &END KIND
     &KIND O
       BASIS_SET TZVP-MOLOPT-GTH-q6
       POTENTIAL GTH-PBE-q6
     &END KIND
     &KIND Zn
       BASIS_SET DZVP-MOLOPT-SR-GTH-q12
       POTENTIAL GTH-PBE-q12
     &END KIND
     &KIND C
       BASIS_SET TZVP-MOLOPT-GTH-q4
       POTENTIAL GTH-PBE-q4
     &END KIND
     &TOPOLOGY
       NUMBER_OF_ATOMS  546
       MULTIPLE_UNIT_CELL  1 1 1
     &END TOPOLOGY
   &END SUBSYS
 &END FORCE_EVAL
&MOTION
  &PRINT
    &STRESS
      ADD_LAST SYMBOLIC
    &END
  &END PRINT
  &GEO_OPT
    RMS_FORCE  1.000000E-07
  &END GEO_OPT
&END MOTION
