 # Version information for this restart file 
 # current date 2018-01-19 06:54:15.749
 # current working dir /ccc/scratch/cont003/gens037/evansj/dut60
 # Program compiled at                             Thu Aug 31 15:06:16 CEST 2017
 # Program compiled on                                                 curie2614
 # Program compiled for                                      Linux-x86-64-ibxmkl
 # Source code revision number                                         svn:16458
 &GLOBAL
   PRINT_LEVEL  LOW
   PROJECT_NAME dut60
   RUN_TYPE GEO_OPT
 &END GLOBAL
 &FORCE_EVAL
   STRESS_TENSOR  ANALYTICAL
   &DFT
     BASIS_SET_FILE_NAME BASIS_MOLOPT
     POTENTIAL_FILE_NAME GTH_POTENTIALS
     &SCF
       MAX_SCF  50
       EPS_SCF     1.0000000000000001E-05
       SCF_GUESS ATOMIC
       &OT  T
         MINIMIZER  CG
         PRECONDITIONER  FULL_KINETIC
       &END OT
       &OUTER_SCF  T
         EPS_SCF     1.0000000000000001E-05
         MAX_SCF  10
       &END OUTER_SCF
     &END SCF
     &QS
       EPS_DEFAULT     9.9999999999999995E-08
       EPS_PGF_ORB     9.9999999999999995E-08
       METHOD  GPW
     &END QS
     &MGRID
       NGRIDS  5
       CUTOFF     8.0000000000000000E+02
       REL_CUTOFF     7.0000000000000000E+01
     &END MGRID
     &XC
       DENSITY_CUTOFF     1.0000000000000000E-10
       GRADIENT_CUTOFF     1.0000000000000000E-10
       TAU_CUTOFF     1.0000000000000000E-10
       &XC_FUNCTIONAL  NO_SHORTCUT
         &PBE  T
         &END PBE
       &END XC_FUNCTIONAL
     &END XC
   &END DFT
  &SUBSYS
    &CELL
      ABC [angstrom] 43.2215 43.2215 43.2215
      ALPHA_BETA_GAMMA [deg] 83.11 90.00 90.00
      MULTIPLE_UNIT_CELL  1 1 1
    &END CELL
    &COORD
      SCALED T
C     0.273005     0.249439     0.227031
C     0.250220     0.296863     0.202254
C     0.236653     0.326048     0.207270
C     0.264078     0.314653     0.150411
C     0.250310     0.343780     0.155326
C     0.250351     0.368034     0.131107
C     0.254373     0.360581     0.099587
C     0.245813     0.422302     0.115930
C     0.250275     0.414540     0.084725
C     0.250222     0.272612     0.226569
C     0.561358     0.058490     0.255404
C     0.501368     0.004663     0.170177
C     0.439324     0.060672     0.750069
C     0.560891     0.939392     0.749847
C     0.749375     0.725519     0.228371
C     0.250185     0.727334     0.772865
C     0.754358     0.582737     0.087262
C     0.250219     0.585433     0.914679
C     0.747649     0.613660     0.079964
C     0.740107     0.382687     0.924928
C     0.270681     0.610607     0.916488
C     0.758486     0.597408     0.141307
C     0.752647     0.398001     0.863614
C     0.229994     0.606532     0.866656
C     0.752016     0.628635     0.134304
C     0.250418     0.631915     0.868222
C     0.750576     0.652770     0.158645
C     0.250455     0.656179     0.843960
C     0.764785     0.648830     0.187712
C     0.765006     0.347127     0.818841
C     0.244703     0.648944     0.812713
C     0.734554     0.704210     0.176037
C     0.736525     0.290482     0.828286
C     0.256046     0.710241     0.828387
C     0.749041     0.700375     0.204952
C     0.250273     0.702992     0.797163
C     0.726326     0.748479     0.229044
C     0.726997     0.250262     0.772953
C     0.571112     0.514937     1.001091
C     0.590524     0.541175     1.001360
C     0.585035     0.485345     0.000995
C     0.622448     0.538093     0.001449
C     0.616899     0.482214     0.001091
C     0.635913     0.508563     0.001299
C     0.537959     0.519392     1.000867
C     0.516203     0.496711     0.000206
C     0.227067     0.249511     0.273017
C     0.273470     0.226323     0.249871
C     0.750064     0.726877     0.773549
C     0.773393     0.749760     0.727106
C     0.726995     0.773120     0.750013
C     0.254653     0.561046     0.058997
C     0.059085     0.254782     0.561277
C     0.441581     0.937449     0.245203
C     0.938623     0.245203     0.440854
C     0.245329     0.441024     0.937844
C     0.438871     0.940965     0.745333
C     0.745237     0.438736     0.940930
C     0.940974     0.745311     0.438928
C     0.559145     0.061508     0.754825
C     0.061549     0.755345     0.559090
C     0.754678     0.558830     0.062266
C     0.170184     0.501312     0.005038
C     0.005349     0.170108     0.501266
C     0.493837     0.998636     0.330454
C     0.998681     0.329926     0.494607
C     0.329879     0.494447     0.998705
C     0.499249     0.994605     0.829935
C     0.829840     0.498641     0.994950
C     0.994462     0.830003     0.498624
C     0.505685     0.001352     0.670182
C     0.001305     0.670097     0.505531
C     0.670122     0.505374     0.001316
C     0.749929     0.439081     0.060849
C     0.060727     0.749948     0.439311
C     0.561036     0.939190     0.250797
C     0.250105     0.560866     0.939174
C     0.939226     0.250034     0.560721
C     0.749874     0.560764     0.939947
C     0.939579     0.749853     0.560940
C     0.439362     0.059662     0.249872
C     0.250086     0.439026     0.060357
C     0.060684     0.249999     0.439286
C     0.228102     0.749414     0.725445
C     0.725310     0.228258     0.749090
C     0.774917     0.751094     0.272313
C     0.750857     0.272274     0.774565
C     0.272114     0.774907     0.750976
C     0.250810     0.274284     0.771771
C     0.771781     0.250701     0.274712
C     0.274460     0.771620     0.250793
C     0.225347     0.248783     0.727735
C     0.248978     0.727503     0.225424
C     0.727652     0.225231     0.249335
C     0.772769     0.250278     0.727033
C     0.727334     0.772947     0.250421
C     0.749688     0.272661     0.227231
C     0.227006     0.749610     0.272869
C     0.272823     0.226812     0.749761
C     0.086616     0.755113     0.582939
C     0.582985     0.086591     0.754610
C     0.917131     0.745691     0.413876
C     0.745520     0.413705     0.917055
C     0.413791     0.917135     0.745700
C     0.245708     0.417087     0.912868
C     0.913549     0.245410     0.416999
C     0.417581     0.912528     0.245498
C     0.082939     0.254507     0.586313
C     0.254254     0.586065     0.082901
C     0.586307     0.082470     0.254997
C     0.914670     0.250081     0.585224
C     0.585602     0.914719     0.250852
C     0.749849     0.414509     0.085338
C     0.085242     0.749847     0.414777
C     0.414776     0.085166     0.750081
C     0.079437     0.748061     0.613816
C     0.613962     0.079386     0.748027
C     0.886144     0.752122     0.421145
C     0.751942     0.421008     0.886067
C     0.421020     0.886142     0.752153
C     0.252224     0.386138     0.920238
C     0.920756     0.251939     0.386011
C     0.386734     0.919887     0.252496
C     0.113869     0.247784     0.579051
C     0.247680     0.578755     0.113851
C     0.579073     0.113239     0.247537
C     0.227456     0.272216     0.249762
C     0.250306     0.226793     0.272666
C     0.727316     0.750076     0.772924
C     0.772899     0.727141     0.750428
C     0.750239     0.772557     0.727318
C     0.925067     0.740320     0.382867
C     0.382787     0.925084     0.740305
C     0.117551     0.761116     0.575159
C     0.760133     0.574960     0.118242
C     0.575102     0.117565     0.760278
C     0.259781     0.617083     0.075089
C     0.075103     0.260215     0.617286
C     0.617220     0.074904     0.261375
C     0.882561     0.239829     0.424895
C     0.240223     0.424868     0.881836
C     0.425178     0.881556     0.239450
C     0.916452     0.270469     0.610459
C     0.610785     0.916473     0.271296
C     0.889393     0.229746     0.583415
C     0.229856     0.583731     0.889417
C     0.583865     0.889550     0.230382
C     0.729391     0.389333     0.083544
C     0.083392     0.729393     0.389597
C     0.389661     0.083441     0.729543
C     0.110522     0.770180     0.416482
C     0.770250     0.416202     0.110571
C     0.416412     0.110303     0.770601
C     0.140680     0.759326     0.597541
C     0.597478     0.140706     0.758583
C     0.902699     0.742112     0.359742
C     0.741868     0.359594     0.902514
C     0.359641     0.902727     0.742068
C     0.241931     0.402388     0.858806
C     0.859423     0.241507     0.402515
C     0.402646     0.858571     0.241109
C     0.097500     0.258441     0.640389
C     0.258046     0.640150     0.097531
C     0.640263     0.097368     0.259581
C     0.863730     0.752849     0.398103
C     0.397960     0.863742     0.752853
C     0.102459     0.747331     0.636249
C     0.747045     0.636151     0.102933
C     0.636377     0.102434     0.747376
C     0.246991     0.601736     0.136336
C     0.136309     0.247053     0.602060
C     0.602009     0.135770     0.246795
C     0.897707     0.252568     0.363591
C     0.252884     0.363619     0.897294
C     0.364151     0.897004     0.253118
C     0.866596     0.229830     0.606186
C     0.606637     0.866773     0.230428
C     0.893630     0.270471     0.633203
C     0.270739     0.633386     0.893694
C     0.633559     0.893683     0.271236
C     0.770147     0.393390     0.133323
C     0.133267     0.770022     0.393664
C     0.393582     0.133037     0.770542
C     0.106166     0.729316     0.366805
C     0.729361     0.366550     0.106332
C     0.366867     0.106205     0.729555
C     0.133795     0.752506     0.628725
C     0.628743     0.133806     0.752173
C     0.871409     0.748288     0.366712
C     0.748050     0.366597     0.871227
C     0.366574     0.871427     0.748246
C     0.248155     0.371127     0.865886
C     0.866329     0.247815     0.371229
C     0.371486     0.865634     0.247862
C     0.128727     0.251921     0.633429
C     0.251753     0.633133     0.128794
C     0.633330     0.128458     0.252384
C     0.868149     0.250170     0.631638
C     0.632033     0.868289     0.250828
C     0.749716     0.368009     0.131778
C     0.131663     0.749604     0.368279
C     0.368264     0.131550     0.750035
C     0.158207     0.750895     0.652797
C     0.652785     0.158248     0.750600
C     0.847388     0.749846     0.342279
C     0.749590     0.342201     0.847148
C     0.342127     0.847400     0.749763
C     0.249596     0.346975     0.841560
C     0.841877     0.249343     0.347188
C     0.347277     0.841349     0.249339
C     0.152786     0.250296     0.657829
C     0.250271     0.657511     0.152901
C     0.657696     0.152599     0.250832
C     0.843878     0.250202     0.655893
C     0.656267     0.844027     0.250774
C     0.749668     0.343746     0.156044
C     0.155916     0.749521     0.344012
C     0.343985     0.155780     0.749968
C     0.187299     0.765053     0.648850
C     0.648761     0.187353     0.764711
C     0.851504     0.735784     0.313168
C     0.735516     0.313086     0.851202
C     0.313011     0.851520     0.735705
C     0.235471     0.350970     0.812460
C     0.812762     0.235266     0.351269
C     0.351152     0.812240     0.235192
C     0.148783     0.264388     0.686941
C     0.264293     0.686650     0.148815
C     0.686832     0.148625     0.264904
C     0.202774     0.249541     0.297294
C     0.297746     0.202035     0.249890
C     0.749936     0.702688     0.797906
C     0.797690     0.749579     0.702866
C     0.702734     0.797395     0.749773
C     0.819076     0.765253     0.347181
C     0.347014     0.819064     0.765135
C     0.153322     0.735299     0.681018
C     0.735080     0.681030     0.153700
C     0.681042     0.153376     0.735070
C     0.234934     0.652570     0.181251
C     0.181025     0.234755     0.652906
C     0.652769     0.180895     0.235381
C     0.846736     0.264779     0.318876
C     0.264982     0.318661     0.846539
C     0.319014     0.846352     0.264820
C     0.812624     0.244481     0.648668
C     0.648983     0.812796     0.245027
C     0.851109     0.255954     0.687138
C     0.256155     0.687435     0.851184
C     0.687528     0.851256     0.256411
C     0.755504     0.350969     0.187277
C     0.187161     0.755284     0.351237
C     0.351156     0.187012     0.755847
C     0.148682     0.743759     0.312770
C     0.743813     0.312508     0.148855
C     0.312785     0.148528     0.744006
C     0.175710     0.734668     0.704153
C     0.704130     0.175811     0.734426
C     0.795997     0.765815     0.324744
C     0.765572     0.324718     0.795725
C     0.324573     0.795983     0.765675
C     0.265508     0.295499     0.824180
C     0.824280     0.265377     0.295803
C     0.295809     0.824035     0.265421
C     0.204141     0.234103     0.675306
C     0.234373     0.674990     0.204358
C     0.675169     0.204023     0.234751
C     0.828626     0.736797     0.290531
C     0.290371     0.828636     0.736690
C     0.209888     0.763973     0.671780
C     0.763811     0.671809     0.210252
C     0.671650     0.209986     0.763626
C     0.263286     0.709263     0.171720
C     0.171691     0.263279     0.709541
C     0.709431     0.171544     0.263821
C     0.790110     0.236305     0.328395
C     0.236443     0.328009     0.789904
C     0.328154     0.789722     0.236243
C     0.828311     0.255968     0.709940
C     0.710314     0.828452     0.256262
C     0.789821     0.244531     0.671468
C     0.244635     0.671746     0.789912
C     0.671765     0.789985     0.244920
C     0.743836     0.289715     0.171668
C     0.171478     0.743806     0.289965
C     0.289961     0.171301     0.743947
C     0.209958     0.755299     0.328435
C     0.755490     0.328184     0.210093
C     0.328339     0.209789     0.755742
C     0.204636     0.749139     0.700325
C     0.700219     0.204762     0.748828
C     0.800003     0.751463     0.295784
C     0.751203     0.295755     0.799666
C     0.295607     0.799992     0.751331
C     0.251128     0.299403     0.795220
C     0.795317     0.251011     0.299775
C     0.299601     0.795063     0.251029
C     0.200253     0.248496     0.704261
C     0.248668     0.703982     0.200366
C     0.704152     0.200139     0.249098
C     0.797074     0.250263     0.702698
C     0.703013     0.797238     0.250520
C     0.749669     0.296960     0.202883
C     0.202703     0.749586     0.297203
C     0.297154     0.202521     0.749795
C     0.228773     0.726365     0.748415
C     0.748293     0.228899     0.726059
C     0.751835     0.774009     0.271749
C     0.773801     0.271665     0.751498
C     0.271540     0.751823     0.773899
C     0.273789     0.251258     0.771169
C     0.771133     0.273657     0.251651
C     0.251442     0.771040     0.273795
C     0.248383     0.225812     0.728348
C     0.226020     0.728145     0.248472
C     0.728264     0.248221     0.226310
C     0.773294     0.727238     0.250305
C     0.250078     0.773303     0.727141
C     0.272798     0.749557     0.226984
C     0.226981     0.272646     0.749737
C     0.749725     0.226875     0.273140
C     1.000992     0.571108     0.515235
C     0.514975     1.001112     0.571225
C     0.984631     0.928983     0.498585
C     0.928846     0.498731     0.985058
C     0.499244     0.984537     0.928892
C     0.428880     0.484645    -0.000971
C    -0.001219     0.428922     0.484881
C     0.483754    -0.000920     0.429352
C     0.015053     0.071131     0.500772
C     0.071179     0.501370     0.014851
C     0.501117     0.014374     0.071196
C     0.207827     0.236115     0.326540
C     0.326914     0.207028     0.236274
C     0.173566     0.263021     0.292170
C     0.263801     0.291801     0.173082
C     0.292685     0.172884     0.263514
C     0.763420     0.673459     0.792936
C     0.792567     0.762796     0.673544
C     0.673394     0.792260     0.762940
C     0.826919     0.736194     0.708093
C     0.736315     0.707847     0.827040
C     0.707973     0.826621     0.736384
C     1.001327     0.590554     0.541444
C     0.541291     1.001421     0.590524
C     0.958440     0.909510     0.498376
C     0.909328     0.498473     0.958902
C     0.498685     0.958418     0.909334
C     0.409399     0.458461    -0.001297
C    -0.001457     0.409463     0.458679
C     0.457582    -0.001254     0.409859
C     0.041261     0.090577     0.501154
C     0.090673     0.501621     0.041026
C     0.501421     0.040573     0.090654
C     0.000882     0.584989     0.485623
C     0.485427     0.000997     0.585231
C     0.014256     0.915132     0.498648
C     0.915035     0.498817     0.014704
C     0.499749     0.014206     0.915138
C     0.415029     0.514273     0.999134
C     0.998868     0.415052     0.514498
C     0.513399     0.999172     0.415553
C     0.985437     0.085005     0.500660
C     0.085011     0.501285     0.985216
C     0.500988     0.984751     0.085056
C     0.001439     0.622473     0.538317
C     0.538315     0.001530     0.622456
C     0.961600     0.877591     0.498359
C     0.877420     0.498407     0.962114
C     0.498679     0.961684     0.877433
C     0.377483     0.461628    -0.001412
C    -0.001511     0.377546     0.461822
C     0.460787    -0.001411     0.377941
C     0.038124     0.122492     0.501343
C     0.122583     0.501642     0.037840
C     0.501508     0.037427     0.122566
C     0.001009     0.616847     0.482445
C     0.482402     0.001113     0.617090
C     0.017466     0.883279     0.498616
C     0.883178     0.498742     0.017964
C     0.499742     0.017522     0.883290
C     0.383171     0.517489     0.999008
C     0.998804     0.383194     0.517690
C     0.516653     0.999006     0.383721
C     0.982252     0.116860     0.500866
C     0.116871     0.501322     0.981984
C     0.501089     0.981556     0.116916
C     0.001251     0.635896     0.508766
C     0.508821     0.001356     0.635993
C     0.991165     0.864201     0.498512
C     0.864057     0.498570     0.991693
C     0.499220     0.991284     0.864131
C     0.364087     0.491192     0.998762
C     0.998648     0.364132     0.491376
C     0.490373     0.998737     0.364615
C     0.008572     0.135909     0.501188
C     0.135968     0.501455     0.008271
C     0.501333     0.007870     0.135975
C     1.000745     0.537962     0.519722
C     0.519235     1.000856     0.538064
C     0.980136     0.962128     0.498785
C     0.961978     0.498994     0.980448
C     0.499341     0.979886     0.962016
C     0.462024     0.480106    -0.000718
C    -0.001009     0.462067     0.480379
C     0.479303    -0.000643     0.462495
C     0.019539     0.037988     0.500464
C     0.038044     0.501129     0.019435
C     0.500936     0.018911     0.038060
C    -0.000009     0.516210     0.497041
C     0.496354     0.000237     0.516523
C     0.002829     0.983868     0.499456
C     0.983837     0.499938     0.003017
C     0.500067     0.002452     0.983883
C     0.483819     0.502748     0.999952
C     0.999746     0.483827     0.503052
C     0.502109     0.999960     0.484113
C     0.996844     0.016253     0.499737
C     0.016198     0.500222     0.996853
C     0.500201     0.996296     0.016241
C     0.150889     0.263327     0.315012
C     0.315500     0.150180     0.263725
C     0.184964     0.235956     0.349202
C     0.236463     0.348712     0.184415
C     0.349546     0.184139     0.236022
C     0.735952     0.685035     0.849750
C     0.849609     0.735849     0.685268
C     0.685139     0.849302     0.735997
C     0.815433     0.762914     0.650903
C     0.763522     0.650838     0.815825
C     0.650739     0.815116     0.763010
C     0.155833     0.249688     0.344195
C     0.344582     0.155049     0.249848
C     0.749665     0.655874     0.844887
C     0.844607     0.749333     0.656029
C     0.655876     0.844290     0.749432
C     0.131590     0.249794     0.368427
C     0.368747     0.130751     0.249793
C     0.749559     0.631648     0.869120
C     0.868836     0.749296     0.631816
C     0.631674     0.868535     0.749370
C     0.100062     0.253564     0.360880
C     0.361104     0.099243     0.253523
C     0.139103     0.246125     0.399974
C     0.246348     0.399534     0.138657
C     0.400299     0.138188     0.246020
C     0.745820     0.639172     0.900653
C     0.900406     0.745992     0.639384
C     0.639276     0.900097     0.746058
C     0.861216     0.752657     0.600265
C     0.753259     0.600117     0.861558
C     0.600110     0.860958     0.752711
C     0.116334     0.245709     0.422711
C     0.422967     0.115351     0.245499
C     0.077310     0.254167     0.383633
C     0.254829     0.383377     0.076872
C     0.383786     0.076426     0.254011
C     0.753827     0.577368     0.884303
C     0.883950     0.753315     0.577517
C     0.577386     0.883722     0.753341
C     0.923142     0.745602     0.616616
C     0.745385     0.616402     0.923389
C     0.616535     0.922860     0.745637
C     0.085128     0.249970     0.414855
C     0.415020     0.084172     0.249767
C     0.749689     0.585205     0.915530
C     0.915210     0.749556     0.585395
C     0.585302     0.914974     0.749586
H     0.290805     0.249403     0.209207
H     0.226287     0.331388     0.229637
H     0.275534     0.309710     0.128497
H     0.256750     0.336472     0.092604
H     0.242355     0.446485     0.122129
H     0.743259     0.619844     0.055934
H     0.735140     0.376818     0.948941
H     0.286686     0.611915     0.935914
H     0.761851     0.590356     0.165282
H     0.756520     0.404659     0.839610
H     0.213507     0.605041     0.847610
H     0.777276     0.627525     0.192821
H     0.776952     0.368937     0.814674
H     0.241090     0.624886     0.806000
H     0.723045     0.725981     0.170573
H     0.725699     0.268175     0.832916
H     0.259667     0.734309     0.835077
H     0.707301     0.747556     0.212520
H     0.709228     0.250247     0.790800
H     0.580056     0.564160     1.001458
H     0.570679     0.464623     0.000845
H     0.627682     0.459442     0.000995
H     0.530007     0.543439     1.001191
H     0.523227     0.472408    -0.000192
H     0.637448     0.558323     1.001614
H     0.839713     0.756712     0.404716
H     0.404562     0.839724     0.756728
H     0.095847     0.742955     0.660177
H     0.742940     0.660111     0.096266
H     0.660369     0.095830     0.743346
H     0.243003     0.595052     0.160313
H     0.160276     0.242926     0.595429
H     0.595315     0.159607     0.242064
H     0.904318     0.256534     0.339590
H     0.256815     0.339642     0.904013
H     0.340260     0.903757     0.257471
H     0.847535     0.213368     0.604608
H     0.605127     0.847775     0.213888
H     0.895198     0.286967     0.652236
H     0.287291     0.652370     0.895281
H     0.652584     0.895201     0.287746
H     0.786660     0.394883     0.152346
H     0.152334     0.786485     0.395148
H     0.395002     0.151990     0.787142
H     0.104547     0.712775     0.347816
H     0.712800     0.347573     0.104765
H     0.347931     0.104710     0.712942
H     0.192399     0.777592     0.627572
H     0.627453     0.192421     0.777214
H     0.872864     0.723367     0.308115
H     0.723091     0.307999     0.872551
H     0.307949     0.872895     0.723315
H     0.223047     0.372312     0.807343
H     0.807695     0.222829     0.372616
H     0.372438     0.807059     0.222700
H     0.127485     0.276895     0.692036
H     0.276672     0.691760     0.127447
H     0.691998     0.127309     0.277346
H     0.814880     0.777188     0.368991
H     0.368820     0.814847     0.777069
H     0.131550     0.723267     0.685122
H     0.723035     0.685108     0.131931
H     0.685192     0.131588     0.723081
H     0.223048     0.630738     0.185467
H     0.185141     0.222783     0.631103
H     0.630960     0.185082     0.223447
H     0.868534     0.276732     0.314670
H     0.276943     0.314526     0.868346
H     0.314938     0.868155     0.276805
H     0.805906     0.240803     0.624621
H     0.624909     0.806115     0.241452
H     0.875162     0.259605     0.693852
H     0.259853     0.694153     0.875229
H     0.694249     0.875303     0.260088
H     0.759258     0.375011     0.193971
H     0.193873     0.758940     0.375289
H     0.375178     0.193732     0.759687
H     0.124636     0.740049     0.306064
H     0.740063     0.305786     0.124819
H     0.306126     0.124481     0.740222
H     0.170264     0.723095     0.725895
H     0.725898     0.170396     0.722887
H     0.774171     0.777244     0.330157
H     0.777018     0.330164     0.773915
H     0.329992     0.774150     0.777087
H     0.276931     0.273686     0.829659
H     0.829693     0.276853     0.274001
H     0.274053     0.829561     0.276931
H     0.225903     0.222568     0.669861
H     0.222995     0.669530     0.226200
H     0.669685     0.225812     0.223282
H     0.833282     0.725988     0.268221
H     0.268064     0.833313     0.725882
H     0.232172     0.774874     0.667217
H     0.774726     0.667275     0.232536
H     0.667035     0.232283     0.774481
H     0.274064     0.731589     0.167063
H     0.167102     0.274110     0.731854
H     0.731751     0.166928     0.274627
H     0.767810     0.225481     0.333065
H     0.225590     0.332591     0.767599
H     0.332681     0.767411     0.225382
H     0.835006     0.259636     0.734000
H     0.734396     0.835114     0.259840
H     0.765756     0.240878     0.664780
H     0.240958     0.665052     0.765853
H     0.665062     0.765926     0.241265
H     0.740086     0.265661     0.164996
H     0.164790     0.740126     0.265905
H     0.265929     0.164602     0.740111
H     0.234019     0.758985     0.335117
H     0.759235     0.334883     0.234140
H     0.334980     0.233850     0.759501
H     0.212217     0.707366     0.747511
H     0.747397     0.212324     0.707078
H     0.752676     0.792978     0.288339
H     0.792783     0.288242     0.752344
H     0.288146     0.752651     0.792854
H     0.292742     0.252115     0.787777
H     0.787753     0.292604     0.252442
H     0.252287     0.787685     0.292719
H     0.247546     0.206853     0.711744
H     0.207077     0.711522     0.247682
H     0.711634     0.247355     0.207375
H     0.791167     0.709495     0.250240
H     0.250026     0.791173     0.709394
H     0.290588     0.749524     0.209160
H     0.209172     0.290452     0.749721
H     0.749732     0.209093     0.290974
H     0.209611     0.289993     0.249708
H     0.250353     0.209046     0.290542
H     0.709448     0.750215     0.790680
H     0.790706     0.709326     0.750583
H     0.750289     0.790257     0.709394
H     1.001437     0.580116     0.564442
H     0.564234     1.001533     0.579966
H     0.935432     0.919927     0.498295
H     0.919704     0.498366     0.935875
H     0.498282     0.935378     0.919673
H     0.419803     0.435447    -0.001398
H    -0.001556     0.419890     0.435676
H     0.434564    -0.001342     0.420252
H     0.064261     0.080144     0.501266
H     0.080279     0.501725     0.064044
H     0.501546     0.063576     0.080226
H     0.000689     0.570605     0.464920
H     0.464660     0.000804     0.570944
H     0.034944     0.929536     0.498738
H     0.929475     0.498911     0.035370
H     0.500155     0.034842     0.929613
H     0.429438     0.534958     0.999334
H     0.998972     0.429446     0.535195
H     0.534069     0.999388     0.429978
H     0.964740     0.070615     0.500421
H     0.070587     0.501191     0.964539
H     0.500820     0.964060     0.070655
H     0.000897     0.627599     0.459659
H     0.459676     0.001002     0.627966
H     0.040263     0.872550     0.498698
H     0.872491     0.498831     0.040782
H     0.500141     0.040355     0.872640
H     0.372453     0.540292     0.999109
H     0.998888     0.372457     0.540484
H     0.539460     0.999102     0.373020
H     0.959462     0.127605     0.500763
H     0.127578     0.501222     0.959175
H     0.500974     0.958763     0.127656
H     1.001148     0.530020     0.543770
H     0.543218     1.001128     0.529923
H     0.956088     0.970075     0.498449
H     0.969815     0.498515     0.956366
H     0.498832     0.955797     0.969831
H     0.469923     0.456041    -0.001058
H    -0.001402     0.469998     0.456326
H     0.455283    -0.000915     0.470526
H     0.043587     0.030040     0.500792
H     0.030190     0.501624     0.043512
H     0.501380     0.042977     0.030171
H    -0.000499     0.523246     0.472743
H     0.472117    -0.000091     0.523763
H     0.027124     0.976820     0.499880
H     0.976915     0.500547     0.027346
H     0.500611     0.026783     0.976968
H     0.476820     0.527058     1.000356
H     1.000237     0.476797     0.527351
H     0.526364     1.000283     0.476930
H     0.972550     0.023305     0.499329
H     0.023127     0.499604     0.972526
H     0.499667     0.971973     0.023186
H     1.001642     0.637499     0.558527
H     0.558587     1.001732     0.637400
H     0.941404     0.862545     0.498257
H     0.862345     0.498264     0.941941
H     0.498263     0.941545     0.862317
H     0.362434     0.441435    -0.001622
H    -0.001649     0.362509     0.441619
H     0.440621    -0.001625     0.362852
H     0.058325     0.137530     0.501590
H     0.137645     0.501765     0.058022
H     0.501698     0.057626     0.137605
H     0.230219     0.225826     0.331924
H     0.332255     0.229388     0.225894
H     0.168227     0.273248     0.269739
H     0.274136     0.269414     0.167763
H     0.270319     0.167605     0.273911
H     0.773799     0.668066     0.770589
H     0.770135     0.772965     0.668108
H     0.667960     0.769822     0.773100
H     0.832260     0.726117     0.730592
H     0.726032     0.730274     0.832290
H     0.730487     0.831964     0.726342
H     0.128943     0.274699     0.310021
H     0.310575     0.128275     0.275204
H     0.189895     0.224619     0.371181
H     0.225026     0.370640     0.189332
H     0.371463     0.189009     0.224539
H     0.724489     0.690030     0.871648
H     0.871602     0.724587     0.690309
H     0.690187     0.871292     0.724733
H     0.810492     0.774106     0.628855
H     0.774916     0.628872     0.810980