 &GLOBAL
   PRINT_LEVEL  LOW
   PROJECT_NAME MOF399
   RUN_TYPE  GEO_OPT
 &END GLOBAL
 &MOTION
   &GEO_OPT
   &END GEO_OPT
   &PRINT
     &STRESS  SILENT
       ADD_LAST  SYMBOLIC
     &END STRESS
   &END PRINT
 &END MOTION
 &FORCE_EVAL
   STRESS_TENSOR  ANALYTICAL
   &DFT
     BASIS_SET_FILE_NAME ../data/BASIS_MOLOPT
     POTENTIAL_FILE_NAME ../data/GTH_POTENTIALS
     MULTIPLICITY  13
     &SCF
       MAX_SCF  50
       EPS_SCF     1.0000000000000001E-05
       SCF_GUESS  RESTART
       &OT  T
         MINIMIZER  CG
         PRECONDITIONER  FULL_KINETIC
       &END OT
       &OUTER_SCF  T
         EPS_SCF     1.0000000000000001E-05
         MAX_SCF  10
       &END OUTER_SCF
     &END SCF
     &QS
       EPS_DEFAULT     9.9999999999999995E-08
       EPS_PGF_ORB     9.9999999999999995E-08
       METHOD  GPW
     &END QS
     &MGRID
       NGRIDS  5
       CUTOFF     8.0000000000000000E+02
       REL_CUTOFF     7.0000000000000000E+01
     &END MGRID
     &XC
       DENSITY_CUTOFF     1.0000000000000000E-10
       GRADIENT_CUTOFF     1.0000000000000000E-10
       TAU_CUTOFF     1.0000000000000000E-10
       &XC_FUNCTIONAL  NO_SHORTCUT
         &PBE  T
         &END PBE
       &END XC_FUNCTIONAL
     &END XC
   &END DFT
   &SUBSYS
     &CELL
       A     4.8303300000000000E+01    0.0000000000000000E+00    0.0000000000000000E+00
       B     2.4151650000000004E+01    4.1831884886620891E+01    0.0000000000000000E+00
       C     2.4151650000000004E+01    1.3943961628873634E+01    3.9439479297526226E+01
       MULTIPLE_UNIT_CELL  1 1 1
     &END CELL
     &COORD
Cu    2.6342054619378993E-02    5.0031788572366087E-01    9.7319831950879809E-01
Cu    9.7481338278697038E-01    2.5663433658882337E-02    4.9978693873756369E-01
Cu    4.9964591154275767E-01    9.7459475010213226E-01    2.5648235706999232E-02
Cu    4.9999463044899556E-01    2.5726388489854871E-02    5.0072295512267428E-01
Cu    4.9993799972646369E-01    4.9971121798723850E-01    9.7522342636117842E-01
Cu    4.9954204707579969E-01    4.9940426781159891E-01    2.6703243935741555E-02
Cu    9.7261192196836221E-01    5.0040381469425799E-01    4.9982623989687569E-01
Cu    2.5926868574616659E-02    9.7449569719667339E-01    4.9970196450233217E-01
Cu    9.7506754236722526E-01    5.0013761098777865E-01    2.4184240003976842E-02
Cu    4.9973436261304466E-01    2.5954745877623756E-02    9.7469753859587960E-01
Cu    5.0008520489708030E-01    9.7480809992680162E-01    5.0024493648191903E-01
Cu    2.3637058649719971E-02    5.0027078147443582E-01    5.0026175123504624E-01
H    1.8170993487858703E-01    1.8079976660629768E-01    9.2119658426928264E-02
H    9.0409394258306006E-02    1.7977947489070789E-01    1.7866578620022888E-01
H    1.7975599057396310E-01    9.1090489781049444E-02    1.8037452878007071E-01
H    8.1926306449528574E-01    8.1893789181322318E-01    9.0679836058336016E-01
H    9.0893612700757531E-01    8.2094280028255495E-01    8.1845383857135545E-01
H    8.2051675638200783E-01    9.1048075214677460E-01    8.2058037866373235E-01
H    4.5085452985510116E-01    9.0889586563530622E-01    8.1937684041309033E-01
H    4.4852156882241462E-01    8.1976575650050543E-01    8.2195126376332295E-01
H    4.5534519473701501E-01    8.1926305949627087E-01    9.0765445103597830E-01
H    9.0936031576932708E-01    4.4909801982708447E-01    8.2084075800259371E-01
H    8.2034750589841454E-01    4.4920103319765720E-01    9.0975668867840875E-01
H    8.1814631292452500E-01    4.5563841023342244E-01    8.1882239827932501E-01
H    1.7876214686410341E-01    1.7962840707722785E-01    5.5276047548001639E-01
H    1.8136919416201921E-01    9.1812596928124351E-02    5.4795599366606196E-01
H    9.2991824129469630E-02    1.8145740168263561E-01    5.4481547749320303E-01
H    9.1005614672384061E-01    8.2029975543851541E-01    4.4872085503722575E-01
H    8.2079703872884946E-01    9.0898016882460764E-01    4.5164229215447349E-01
H    8.1872403448600806E-01    8.1978655558688029E-01    4.5407477398082730E-01
H    1.8098754715006146E-01    5.4961363831342447E-01    1.7821202291686755E-01
H    1.7854684187947323E-01    5.4877057039182553E-01    9.0823396210575086E-02
H    9.0872372712116664E-02    5.4874859937017895E-01    1.8123330607035337E-01
H    5.5298111779054204E-01    8.8916440396571941E-02    1.8001895265473891E-01
H    5.4524895727610323E-01    1.8090688922660955E-01    1.8139658862453953E-01
H    5.4803101602625337E-01    1.7878328070670274E-01    9.2040458775682538E-02
H    1.3990933636394257E-01    2.1828795157793765E-01    6.5570910253017714E-02
H    8.8678346241517547E-02    1.6266846490973555E-01    2.3249886864482133E-01
H    2.3244258215014663E-01    9.1446488151673277E-02    1.6386306037083395E-01
H    1.3828254686052679E-01    6.6135054611234423E-02    2.1699389794574964E-01
H    9.0875756658799614E-02    2.3265513248005687E-01    1.6257976649385500E-01
H    2.1811216944567166E-01    1.3719538682345256E-01    6.7151452419951810E-02
H    8.6222490669383733E-01    7.8226118434563885E-01    9.3165432512785651E-01
H    9.3424268414321188E-01    8.6220696409624498E-01    7.8227588207516796E-01
H    7.6723383031013137E-01    9.1083486890547405E-01    8.3636570404434118E-01
H    8.3753616186763769E-01    9.1264486111925858E-01    7.6698184937483915E-01
H    9.0930217515616973E-01    7.6778545758777561E-01    8.3488024437287611E-01
H    7.8179735454495258E-01    8.6065536432608025E-01    9.3339661152120013E-01
H    4.2064051671995883E-01    9.3339256478934651E-01    7.8324179638386893E-01
H    4.8488118045081186E-01    7.6714246457321544E-01    8.3779653500873141E-01
H    4.2380048934696735E-01    8.6262617373241590E-01    9.3245961385389964E-01
H    9.3421470403332341E-01    4.1997253524647765E-01    8.6243362485660224E-01
H    7.6733711956924966E-01    4.8560366233011970E-01    9.1085112900582565E-01
H    8.5614130152801671E-01    4.2835083442069549E-01    7.8084795328675505E-01
H    2.3301648364785194E-01    1.6292434384482551E-01    5.1640444235759619E-01
H    1.6536467531861920E-01    9.1394721973457382E-02    5.1171876433602181E-01
H    6.6076134407171055E-02    2.1823610524178688E-01    5.7669677616171122E-01
H    4.2401648006590653E-01    7.8173457681143066E-01    9.3485285675348850E-01
H    4.8321233765703009E-01    8.3686292944549923E-01    7.6771290412410509E-01
H    4.8819743688672063E-01    9.0888087337144507E-01    8.3526198230647908E-01
H    9.1212928749841415E-01    8.3686066908253864E-01    4.8365663885980681E-01
H    7.6780745883277512E-01    9.0982476151750635E-01    4.8740648114485163E-01
H    8.5981581446683897E-01    7.8239450329685101E-01    4.2380480155353845E-01
H    2.1669456893407657E-01    5.8094851182375995E-01    1.3413763924979299E-01
H    1.3558757380535888E-01    5.7928665418980785E-01    6.7247462720028822E-02
H    6.7559133696167784E-02    5.8004184987723251E-01    2.1746424281891855E-01
H    5.1521684125724276E-01    8.9183646107993189E-02    2.3293873019716602E-01
H    5.7665749728950400E-01    2.1754864179589567E-01    1.3819498420298068E-01
H    5.7968121975720277E-01    1.3642172069106831E-01    6.7093294331658615E-02
H    8.9700523305044799E-02    5.1370942243314877E-01    1.6361051549261840E-01
H    2.3255565020576829E-01    5.1320836029701977E-01    9.0325538752549811E-02
H    1.6380591528048963E-01    5.1289407819676924E-01    2.3224310057951794E-01
H    7.8173025524396478E-01    8.6236966902967704E-01    4.2382057975197196E-01
H    8.6178935314355964E-01    9.3387896191511333E-01    4.2235386621141480E-01
H    9.1044714542253369E-01    7.6734692996337217E-01    4.8504621174906903E-01
H    5.1173799753099614E-01    2.3209006487896006E-01    9.1900147918111436E-02
H    5.7665899084152672E-01    1.3920059419568986E-01    2.1856995863741188E-01
H    5.1663276332346819E-01    8.7403145824660688E-02    1.6346455336113397E-01
H    6.7923086711878411E-02    1.3862564868950125E-01    5.7506116206859492E-01
H    2.1734570276504056E-01    6.6466033794562035E-02    5.7869462239585279E-01
H    1.6305287256104931E-01    2.3296894007611491E-01    5.1577494695770809E-01
H    7.8115329899038100E-01    4.2470341435159731E-01    8.6057307125665827E-01
H    8.3781960022534230E-01    4.8343883527643244E-01    9.1099372774252474E-01
H    9.1418913882299990E-01    4.8080355254301982E-01    7.6871655162696584E-01
H    1.1361221479451040E-01    2.7916185206896588E-01    3.8528312483591558E-02
H    6.0899412959496711E-02    1.3547516193967893E-01    2.9265016615510087E-01
H    2.9331220394750679E-01    6.4310487262237342E-02    1.3727508793587739E-01
H    1.1100765416964654E-01    3.8753271740305996E-02    2.7742977542848912E-01
H    6.4149370325208052E-02    2.9331797995941045E-01    1.3572561298171013E-01
H    2.7923089851613520E-01    1.1066816324235373E-01    4.0396845614152646E-02
H    8.8887863816332857E-01    7.2136060330549445E-01    9.5856505307283135E-01
H    9.6171068607536347E-01    8.8906371310158783E-01    7.2167324704009517E-01
H    7.0671999692130327E-01    9.3765014808647651E-01    8.6341958444529621E-01
H    8.6487985098501330E-01    9.3969722562491564E-01    7.0660594437956259E-01
H    9.3640990977284533E-01    7.0713813436682249E-01    8.6159244362816079E-01
H    7.2106150270835578E-01    8.8717506044939498E-01    9.6057946802339844E-01
H    4.2683853723227194E-01    9.6082573077706068E-01    7.2267362687927283E-01
H    4.9131698713062649E-01    7.0668557552872868E-01    8.6488007193850847E-01
H    4.3143836471184327E-01    8.8966901349788385E-01    9.5870298670752507E-01
H    9.6170421383386329E-01    4.2684636290505584E-01    8.8880920408208819E-01
H    7.0697497250627195E-01    4.9140900388968961E-01    9.3891380040372108E-01
H    8.8229576447061375E-01    4.3615239605874656E-01    7.1995808175397114E-01
H    2.9362428986061767E-01    1.3528488458899407E-01    5.1011069433796130E-01
H    1.3932127221522694E-01    6.4110523533667918E-02    5.0433935062578439E-01
H    3.8634694256349550E-02    2.7911496023286120E-01    5.6920163695332915E-01
H    4.3085123915190959E-01    7.2099763877160017E-01    9.6208593058092395E-01
H    4.8884331767251266E-01    8.6417161722168157E-01    7.0740644749332304E-01
H    4.9556598917527928E-01    9.3616138961056417E-01    8.6141632214200714E-01
H    9.3934233051149885E-01    8.6389598509497056E-01    4.8983992279865268E-01
H    7.0699245664878652E-01    9.3638464759375895E-01    4.9502146360393812E-01
H    8.8594842957579023E-01    7.2162517243980895E-01    4.3092103842613833E-01
H    2.7749982267166629E-01    5.7395520766919839E-01    1.0749940272606059E-01
H    1.0855011521149899E-01    5.7254893850609478E-01    4.0319117548860486E-02
H    4.0925556106004651E-02    5.7275861793872873E-01    2.7829869798509177E-01
H    5.0799113100413185E-01    6.2680978102637647E-02    2.9370696800407986E-01
H    5.6915095200080756E-01    2.7850880300720332E-01    1.1160112277194338E-01
H    5.7372693971780608E-01    1.0933783313641522E-01    3.9603182555889696E-02
H    6.2649003801463307E-02    5.0704876835102275E-01    1.3675076411739742E-01
H    2.9314332849301022E-01    5.0660397148607028E-01    6.3372398726153564E-02
H    1.3726670250005812E-01    5.0579707445232391E-01    2.9292947204170761E-01
H    7.2068670912974975E-01    8.8856294143457248E-01    4.3190458384968777E-01
H    8.8862124859109703E-01    9.6106861009506561E-01    4.2901568426645947E-01
H    9.3687784254716044E-01    7.0680343554112302E-01    4.9179217197852737E-01
H    5.0489560366179298E-01    2.9280681428532662E-01    6.4718155596117266E-02
H    5.6892633422282834E-01    1.1311882273708242E-01    2.7958384747462700E-01
H    5.1072857700493512E-01    6.0312558640706004E-02    1.3608742536435986E-01
H    4.1692586593410588E-02    1.1170830694334513E-01    5.6728658301899915E-01
H    2.7828858928634453E-01    3.8648957006683297E-02    5.7143795602225023E-01
H    1.3575547935917279E-01    2.9362481226977122E-01    5.0855717906648057E-01
H    7.2055138225219961E-01    4.3105168750132788E-01    8.8812757989990465E-01
H    8.6506670680920550E-01    4.8956219557859182E-01    9.3796092617996107E-01
H    9.4080952158512010E-01    4.8790129083125200E-01    7.0810098279404377E-01
H    1.1498147780655046E-01    3.3266091948430643E-01    2.3326564262657369E-02
H    2.0403076854591577E-02    1.1029665551447067E-01    3.3125579385610776E-01
H    3.3155258786977154E-01    2.1662183665955462E-02    1.1040293827507705E-01
H    1.1190417312966630E-01    2.3407208410573040E-02    3.3155819953419446E-01
H    2.3723650797385008E-02    3.3259995238933987E-01    1.1050037396519310E-01
H    3.3291615502613853E-01    1.1601400148850556E-01    2.7624132143388477E-02
H    8.8594057551050331E-01    6.6730635245684888E-01    9.7283732856507499E-01
H    9.7681930676217621E-01    8.8762339907582499E-01    6.6775454597403006E-01
H    6.6766677500351646E-01    9.7806744490914832E-01    8.8915505645145254E-01
H    8.9052950952452692E-01    9.7959854089773646E-01    6.6795928652713465E-01
H    9.7853869820272565E-01    6.6867160586275554E-01    8.8748446491117194E-01
H    6.6705081938798227E-01    8.8597070908106990E-01    9.7531729427632619E-01
H    4.6938836580860255E-01    9.7496563064934161E-01    6.6901905610992574E-01
H    4.6431206030717759E-01    6.6786971205385759E-01    8.9068021542129772E-01
H    4.7177756355443212E-01    8.8678977849419838E-01    9.7379606533479579E-01
H    9.7705282878395117E-01    4.6759740640205533E-01    8.8668480303891184E-01
H    6.6771922964038088E-01    4.6369159892753231E-01    9.7973521318238943E-01
H    8.8206900738888028E-01    4.7924152408703669E-01    6.6668057618933163E-01
H    3.3053303455926147E-01    1.0571770054132885E-01    5.4509715308881801E-01
H    1.1419368168196915E-01    2.2831066863065522E-02    5.3051400821935069E-01
H    2.3642048931334435E-02    3.3252435333066632E-01    5.2922680661041965E-01
H    4.7176083552896830E-01    6.6688369961757332E-01    9.7651233561324402E-01
H    4.5975727263281352E-01    8.9120708869084153E-01    6.6842682132734021E-01
H    4.6816595890563806E-01    9.7814620573862932E-01    8.8672174450021135E-01
H    9.7934656640893758E-01    8.8949985521471719E-01    4.6313713575408683E-01
H    6.6738615055035455E-01    9.7737295244823241E-01    4.6774186915654342E-01
H    8.8497933218284885E-01    6.6800358997225229E-01    4.7017515362593970E-01
H    3.3116102001759024E-01    5.3214027552197307E-01    1.1189338203231031E-01
H    1.1192194528013065E-01    5.3178274110648727E-01    2.4384436481692650E-02
H    2.5022469397964219E-02    5.3113887456510767E-01    3.3134368020141391E-01
H    5.3750883843119190E-01    2.1729866130152480E-02    3.3232682908608802E-01
H    5.2347584219819521E-01    3.3256106756156040E-01    1.1622999132870580E-01
H    5.3379632711189962E-01    1.1120132556296865E-01    2.3792651761646213E-02
H    2.1397900530259018E-02    5.3305558306672940E-01    1.1236606702531882E-01
H    3.3218137013793314E-01    5.3454656842714099E-01    2.0930287739031717E-02
H    1.1273028144053848E-01    5.3248353317687880E-01    3.3311503349183502E-01
H    6.6752034891398859E-01    8.8504684598089478E-01    4.7408476303701447E-01
H    8.8737221565634039E-01    9.7578877488042870E-01    4.6918926152107365E-01
H    9.7669471558768572E-01    6.6782960621106746E-01    4.6531308274811561E-01
H    5.3663094652484333E-01    3.3119116743409527E-01    2.1773328532238376E-02
H    5.2614382931024739E-01    1.1572219396551899E-01    3.3314347974413527E-01
H    5.3746690490980131E-01    1.9840157724551409E-02    1.1086894583602587E-01
H    2.7021864702096599E-02    1.1408929605920617E-01    5.2656501347209195E-01
H    3.3326629197317553E-01    2.7670002201487843E-02    5.2365013856145215E-01
H    1.0985654440713076E-01    3.3307427971974662E-01    5.3459669315355751E-01
H    6.6739234069009656E-01    4.7066582439839433E-01    8.8732894392489770E-01
H    8.9002771605717357E-01    4.6338320154253915E-01    9.7807437591395430E-01
H    9.7859020236801109E-01    4.5945863343488730E-01    6.6882019285748706E-01
H    8.9444065298198358E-02    3.9465709732092169E-01   -2.4738364211911350E-03
H   -3.7672427054591690E-03    8.5534645044661545E-02    3.9362916752960275E-01
H    3.9389521822970447E-01   -3.1237163544702009E-03    8.4772835634847540E-02
H    8.7098910092231682E-02   -1.3414866372522380E-03    3.9387181859018383E-01
H   -1.0239005615068908E-03    3.9474141850144356E-01    8.4841607361978141E-02
H    3.9512910033807619E-01    9.0680299735540648E-02    1.7706226178531455E-03
H    9.1163835344870814E-01    6.0521496271809494E-01    9.9825197993685655E-01
H    1.0020280143964655E+00    9.1259164430831230E-01    6.0551168453072690E-01
H    6.0549868608674862E-01    1.0028131718756976E+00    9.1458488423759576E-01
H    9.1545156277097850E-01    1.0037272725383457E+00    6.0557067746252913E-01
H    1.0036127118257450E+00    6.0645091908750870E-01    9.1276895022570348E-01
H    6.0501992265292570E-01    9.1152361974505081E-01    1.0009036571317365E+00
H    4.8173792994967379E-01    1.0007576322513356E+00    6.0673012569809204E-01
H    4.7675976591213048E-01    6.0563771432258118E-01    9.1574583469733384E-01
H    4.8143144293703061E-01    9.1233900275539015E-01    1.0003970800946378E+00
H    1.0020596814460563E+00    4.8021439835700180E-01    9.1140305193278504E-01
H    6.0557419442729099E-01    4.7519246190919862E-01    1.0044711167893321E+00
H    9.0730849290883897E-01    4.8986099565861158E-01    6.0462059545531888E-01
H    3.9300201746712443E-01    8.0772286661648290E-02    5.3213920194966435E-01
H    8.7990155402533299E-02   -2.2605286416461723E-03    5.1988126199412699E-01
H   -2.4915821123267213E-03    3.9456867560043546E-01    5.1843526780296378E-01
H    4.8321755313244585E-01    6.0474159397244043E-01    1.0017480295048993E+00
H    4.7287573556734663E-01    9.1694737675868121E-01    6.0603252996217327E-01
H    4.7878845973808887E-01    1.0030089212227176E+00    9.1326388222794042E-01
H    1.0035364906921826E+00    9.1435764361090388E-01    4.7646568782878396E-01
H    6.0524347972167702E-01    1.0019853593000749E+00    4.7923998360279180E-01
H    9.1035445202340437E-01    6.0598548793135631E-01    4.8089058799084244E-01
H    3.9339040041979517E-01    5.2030193622110310E-01    8.7185379586535688E-02
H    8.7061217054037507E-02    5.2041775092838605E-01   -1.5238222310971429E-03
H   -1.1878788750408667E-03    5.1986028050282429E-01    3.9344405573119884E-01
H    5.2594070241909829E-01   -2.9494544807473965E-03    3.9452020694524520E-01
H    5.1233378246727490E-01    3.9472847201190975E-01    9.0953402550488380E-02
H    5.2129115255486613E-01    8.6660230154894477E-02   -1.4442663074049546E-03
H   -2.6725544670604994E-03    5.2065667238633118E-01    8.6608808234361540E-02
H    3.9452376993390048E-01    5.2173895378700874E-01   -3.0277005010491413E-03
H    8.6502614799391309E-02    5.2044323598172271E-01    3.9529408564739704E-01
H    6.0545774898505011E-01    9.1020932072377458E-01    4.8494532046329475E-01
H    9.1241515001263429E-01    1.0009387415569617E+00    4.8124683447256056E-01
H    1.0011617804860480E+00    6.0563657355386047E-01    4.7736523774830619E-01
H    5.2462297794795454E-01    3.9348480946770320E-01   -2.9273792818587268E-03
H    5.1551142940257932E-01    9.0455613041494978E-02    3.9519477836479083E-01
H    5.2375154105346933E-01   -3.8455332830293755E-03    8.5851822717338613E-02
H    7.6965519484892123E-04    8.8324019867876122E-02    5.1676433354083495E-01
H    3.9563394030283855E-01    2.4746104159316658E-03    5.1153640598827554E-01
H    8.3977513619677938E-02    3.9526767626495085E-01    5.2248151244314678E-01
H    6.0543315415851173E-01    4.8123981350346923E-01    9.1273953065918723E-01
H    9.1504100550163503E-01    4.7661152415538721E-01    1.0021675230236142E+00
H    1.0030985878389229E+00    4.7164258712310592E-01    6.0654119944801144E-01
C    1.6760345817984507E-01    1.6711109595427298E-01    1.1712524391737658E-01
C    1.1694401778296430E-01    1.6706681418247127E-01    1.6639797008117371E-01
C    1.6671256271502366E-01    1.1701733612982511E-01    1.6709054150566807E-01
C    8.3291459163113868E-01    8.3303055393231784E-01    8.8176425886209819E-01
C    8.8304678123945057E-01    8.3392733740793723E-01    8.3186238559588266E-01
C    8.3314910914965579E-01    8.8388439878957281E-01    8.3276315324465155E-01
C    4.5074754308607168E-01    8.8287447872551394E-01    8.3274782574104711E-01
C    4.5016518369555431E-01    8.3264823138069499E-01    8.3398176762766285E-01
C    4.5234157163137406E-01    8.3281892540727931E-01    8.8274387258797427E-01
C    8.8311968214208880E-01    4.4964418259045524E-01    8.3365341284816796E-01
C    8.3296804353645504E-01    4.5047214324780999E-01    8.8331312283219410E-01
C    8.3222708411329716E-01    4.5236800050677495E-01    8.3280249067405565E-01
C    1.6673316513670619E-01    1.6714671910712828E-01    5.5055598313373999E-01
C    1.6785606442235484E-01    1.1759741237470388E-01    5.4874459973011047E-01
C    1.1791193967931081E-01    1.6763585642199824E-01    5.4780665050240274E-01
C    8.8352053111913798E-01    8.3308721360045002E-01    4.5027434835482816E-01
C    8.3371639617670057E-01    8.8311682065390262E-01    4.5107905215642652E-01
C    8.3276693039304328E-01    8.3331580216841794E-01    4.5165173897384014E-01
C    1.6728592541245565E-01    5.4984892212750491E-01    1.6570481483313751E-01
C    1.6589168533605705E-01    5.4945169189616272E-01    1.1664328795116813E-01
C    1.1669894543586694E-01    5.4941700377898528E-01    1.6739329872778397E-01
C    5.5070595142279055E-01    1.1564656433134952E-01    1.6744872492139942E-01
C    5.4816643619538996E-01    1.6674883066385066E-01    1.6768648607710188E-01
C    5.4889493968931569E-01    1.6580567003461019E-01    1.1779805395070410E-01
C    1.3392520752865678E-01    1.8434128794517307E-01    1.3317158166758286E-01
C    1.3309122935033116E-01    1.3355288905430901E-01    1.8392073711465473E-01
C    1.8434288595979187E-01    1.3348614131698600E-01    1.3383083142947624E-01
C    8.6654254265500097E-01    8.1620696771390522E-01    8.6504952870965324E-01
C    8.6666135580883508E-01    8.6771929376294632E-01    8.1526524300586256E-01
C    8.1573624197062677E-01    8.6684600060429884E-01    8.6585915400900593E-01
C    4.5027599697031040E-01    8.6614663533751368E-01    8.1622436993846526E-01
C    4.5152016499730124E-01    8.1548250952054879E-01    8.6708619698501144E-01
C    4.5206065930316569E-01    8.6649985780730365E-01    8.6584251039345250E-01
C    8.6675492706169333E-01    4.4976046804697961E-01    8.6714437708696213E-01
C    8.1529250926253061E-01    4.5193730571402430E-01    8.6650226055263713E-01
C    8.6618582295412061E-01    4.5117387234657985E-01    8.1600279736310988E-01
C    1.8442684927492625E-01    1.3386584688365374E-01    5.4977506376662200E-01
C    1.3471055816059960E-01    1.3412691549723094E-01    5.4756019923295418E-01
C    1.3365661325097938E-01    1.8455562279064339E-01    5.4914845257489997E-01
C    8.6739396330615726E-01    8.6649822062864401E-01    4.5065282357878922E-01
C    8.1595220286878023E-01    8.6684413068575872E-01    4.5183133670560266E-01
C    8.6647744919142433E-01    8.1596852655698116E-01    4.5119278535502860E-01
C    1.8374404030659186E-01    5.4961155724326494E-01    1.3221517532740781E-01
C    1.3240030990342255E-01    5.4926050350166367E-01    1.3388719089059109E-01
C    1.3390325901678637E-01    5.4936776135757759E-01    1.8379578130933880E-01
C    5.4929404391240477E-01    1.3283876872278771E-01    1.8473554863434466E-01
C    5.4797329459476540E-01    1.8360761617214033E-01    1.3416421315649757E-01
C    5.4995820689163655E-01    1.3190132438974583E-01    1.3417814938273764E-01
C    1.1731347702775639E-01    2.2057834159971232E-01    1.1633071070340355E-01
C    1.1559915274485667E-01    1.1666059033341174E-01    2.1982221447311517E-01
C    2.2058775048544707E-01    1.1648460995847040E-01    1.1755719103218666E-01
C    8.8351783312507071E-01    7.7983931658236161E-01    8.8115405465811836E-01
C    8.8364033311417378E-01    8.8520640932369832E-01    7.7944065378826199E-01
C    7.7946383968331001E-01    8.8363269846607706E-01    8.8263451377057778E-01
C    4.5156494610793291E-01    8.8287945460002426E-01    7.8037417825657107E-01
C    4.5394362158381579E-01    7.7932160097769099E-01    8.8408489574510896E-01
C    4.5544173106815639E-01    8.8362272904935579E-01    8.8173012929341488E-01
C    8.8377325280785335E-01    4.5131662680118245E-01    8.8447018941736522E-01
C    7.7909479424915895E-01    4.5462020154042848E-01    8.8355979928679129E-01
C    8.8296469865932847E-01    4.5410379972439446E-01    7.7971315117736040E-01
C    2.2036987665839283E-01    1.1694537847468679E-01    5.4811394582162587E-01
C    1.1875148091790329E-01    1.1721738034025686E-01    5.4396122445741590E-01
C    1.1679336024398315E-01    2.2073410485553746E-01    5.4666865096244799E-01
C    8.8483886169004067E-01    8.8317831178688166E-01    4.5247680660476836E-01
C    7.7957287802015751E-01    8.8381271454737043E-01    4.5516586380554591E-01
C    8.8310965323639934E-01    7.7977255597429462E-01    4.5379871435658575E-01
C    2.1984251504308289E-01    5.4739732849058165E-01    1.1459225401318089E-01
C    1.1488594269310087E-01    5.4693364711517301E-01    1.1759443009162217E-01
C    1.1778872467389165E-01    5.4696736381535183E-01    2.1998064097997375E-01
C    5.4644782941378112E-01    1.1625024798677586E-01    2.2097009929613076E-01
C    5.4473235041156842E-01    2.1998826341342054E-01    1.1719760377482297E-01
C    5.4851446667282300E-01    1.1419663892990299E-01    1.1745155422581001E-01
C    1.2358162701069238E-01    2.3468017109260111E-01    8.1127223516785821E-02
C    9.3022561848490518E-02    1.3558036682544794E-01    2.4193440053788509E-01
C    2.4239866430117329E-01    9.5113275508419540E-02    1.3683982118537674E-01
C    1.2159162808280548E-01    8.1512751065117586E-02    2.3353541534023176E-01
C    9.5272475507950344E-02    2.4253712178365588E-01    1.3544832056784439E-01
C    2.3458690976214105E-01    1.2166614376018486E-01    8.2557564925862706E-02
C    8.7811553631372108E-01    7.6578449905566570E-01    9.1623081320436139E-01
C    9.1885570903849922E-01    8.7892201226349354E-01    7.6574444101498151E-01
C    7.5747377292243767E-01    9.0612126431392992E-01    8.6356379959055152E-01
C    8.6470654385256951E-01    9.0797115232621906E-01    7.5738813356028423E-01
C    9.0530231916888304E-01    7.5797042714343754E-01    8.6195027680580327E-01
C    7.6540267482591906E-01    8.7722486048837578E-01    9.1786390705246745E-01
C    4.3603989466252485E-01    9.1802958471749674E-01    7.6668652004673921E-01
C    4.7231388082527065E-01    7.5735653605179853E-01    8.6501934025496741E-01
C    4.3999345602485057E-01    8.7836979578744345E-01    9.1673766650731381E-01
C    9.1889829860914385E-01    4.3571697071752891E-01    8.7862117839745835E-01
C    7.5742970533545950E-01    4.7282012020533537E-01    9.0638535569262868E-01
C    8.7434370071642287E-01    4.4187846822668009E-01    7.6500796442837027E-01
C    2.4254915306322436E-01    1.3580178666006615E-01    5.2943890296112894E-01
C    1.3827951380872558E-01    9.5413237621445782E-02    5.2463551834269917E-01
C    8.1521718152748043E-02    2.3471073132133960E-01    5.6128773941561827E-01
C    4.3927756812926683E-01    7.6531855201011401E-01    9.1934062915984083E-01
C    4.6999929109016941E-01    8.6398425592504180E-01    7.5824604773864202E-01
C    4.7502894516295735E-01    9.0516580399508628E-01    8.6229164501908828E-01
C    9.0751867303292766E-01    8.6403063172455619E-01    4.7082649085814526E-01
C    7.5778912521179898E-01    9.0554460413041771E-01    4.7455355972434343E-01
C    8.7641450213870775E-01    7.6588041058055423E-01    4.3912478053339754E-01
C    2.3344512678688267E-01    5.6420630254670290E-01    1.1899930520264843E-01
C    1.1988298727958767E-01    5.6305535443337940E-01    8.2633505626492090E-02
C    8.2964807672828406E-02    5.6327912314468565E-01    2.3399070504280381E-01
C    5.2792184216364502E-01    9.3791122980507749E-02    2.4284380076492407E-01
C    5.6041322910054414E-01    2.3401410888284563E-01    1.2251629436100664E-01
C    5.6418469242941705E-01    1.2000010476707808E-01    8.2360377601364582E-02
C    9.3394091122632389E-02    5.2732385566091056E-01    1.3664655021942368E-01
C    2.4205933994914777E-01    5.2725710528845826E-01    9.3629694767669899E-02
C    1.3693030782124116E-01    5.2669222975403196E-01    2.4200898624141648E-01
C    7.6535401511808654E-01    8.7813827695255375E-01    4.3996994756166707E-01
C    8.7852696513912643E-01    9.1837787808910387E-01    4.3753465967138250E-01
C    9.0556888089752408E-01    7.5766060358684995E-01    4.7238723105315183E-01
C    5.2508185674763530E-01    2.4193228706036618E-01    9.5723199415525206E-02
C    5.6124956694926764E-01    1.2270145954537813E-01    2.3497495469922874E-01
C    5.2987205306755936E-01    9.1784097722026697E-02    1.3635290788858695E-01
C    8.3692850562980869E-02    1.2267235382300649E-01    5.5907531291396850E-01
C    2.3399043471831849E-01    8.1714476379984399E-02    5.6332101550414582E-01
C    1.3579069647336250E-01    2.4277601402558271E-01    5.2819686100077079E-01
C    7.6491027090175046E-01    4.3977533686979170E-01    8.7741424958208647E-01
C    8.6491011549840602E-01    4.7019224327584247E-01    9.0664986334933839E-01
C    9.0753956070163122E-01    4.7029593106695255E-01    7.5839476072843259E-01
C    1.0865566463692068E-01    2.6916772550788065E-01    6.5804505870914784E-02
C    7.7333948186983775E-02    1.2017470350071074E-01    2.7604547348323782E-01
C    2.7681536207336743E-01    7.9951800778874024E-02    1.2178572963975279E-01
C    1.0609111126805985E-01    6.6000466350999543E-02    2.6780233896550198E-01
C    8.0219562316297829E-02    2.7689942155572733E-01    1.2022151077831020E-01
C    2.6909569222036861E-01    1.0678553037301843E-01    6.7451782008602496E-02
C    8.9315159113359188E-01    7.3133004956748560E-01    9.3141806239080327E-01